NAME          REFINERY
OBJSENSE
    MAX
ROWS
 N  COST
 L  CDUCAP_1
 E  CBAL_BOMBAY_HIGH_1
 E  STRM_BOMBAY_HIGH_NAPHTHA_1
 E  TSTRM_BOMBAY_HIGH_NAPHTHA_1
 E  STRM_BOMBAY_HIGH_KERO_1
 E  TSTRM_BOMBAY_HIGH_KERO_1
 E  STRM_BOMBAY_HIGH_DIESEL_1
 E  TSTRM_BOMBAY_HIGH_DIESEL_1
 E  STRM_BOMBAY_HIGH_VGO_1
 E  TSTRM_BOMBAY_HIGH_VGO_1
 E  STRM_BOMBAY_HIGH_RESIDUE_1
 E  TSTRM_BOMBAY_HIGH_RESIDUE_1
 E  FSTRM_BOMBAY_HIGH_NAPHTHA_1
 E  FSTRM_BOMBAY_HIGH_DIESEL_1
 E  CBAL_ARAB_LIGHT_1
 E  STRM_ARAB_LIGHT_NAPHTHA_1
 E  TSTRM_ARAB_LIGHT_NAPHTHA_1
 E  STRM_ARAB_LIGHT_KERO_1
 E  TSTRM_ARAB_LIGHT_KERO_1
 E  STRM_ARAB_LIGHT_DIESEL_1
 E  TSTRM_ARAB_LIGHT_DIESEL_1
 E  STRM_ARAB_LIGHT_VGO_1
 E  TSTRM_ARAB_LIGHT_VGO_1
 E  STRM_ARAB_LIGHT_RESIDUE_1
 E  TSTRM_ARAB_LIGHT_RESIDUE_1
 E  FSTRM_ARAB_LIGHT_NAPHTHA_1
 E  FSTRM_ARAB_LIGHT_DIESEL_1
 E  CBAL_ARAB_HEAVY_1
 E  STRM_ARAB_HEAVY_NAPHTHA_1
 E  TSTRM_ARAB_HEAVY_NAPHTHA_1
 E  STRM_ARAB_HEAVY_KERO_1
 E  TSTRM_ARAB_HEAVY_KERO_1
 E  STRM_ARAB_HEAVY_DIESEL_1
 E  TSTRM_ARAB_HEAVY_DIESEL_1
 E  STRM_ARAB_HEAVY_VGO_1
 E  TSTRM_ARAB_HEAVY_VGO_1
 E  STRM_ARAB_HEAVY_RESIDUE_1
 E  TSTRM_ARAB_HEAVY_RESIDUE_1
 E  FSTRM_ARAB_HEAVY_NAPHTHA_1
 E  FSTRM_ARAB_HEAVY_DIESEL_1
 E  CBAL_BASRAH_1
 E  STRM_BASRAH_NAPHTHA_1
 E  TSTRM_BASRAH_NAPHTHA_1
 E  STRM_BASRAH_KERO_1
 E  TSTRM_BASRAH_KERO_1
 E  STRM_BASRAH_DIESEL_1
 E  TSTRM_BASRAH_DIESEL_1
 E  STRM_BASRAH_VGO_1
 E  TSTRM_BASRAH_VGO_1
 E  STRM_BASRAH_RESIDUE_1
 E  TSTRM_BASRAH_RESIDUE_1
 E  FSTRM_BASRAH_NAPHTHA_1
 E  FSTRM_BASRAH_DIESEL_1
 E  CBAL_URALS_1
 E  STRM_URALS_NAPHTHA_1
 E  TSTRM_URALS_NAPHTHA_1
 E  STRM_URALS_KERO_1
 E  TSTRM_URALS_KERO_1
 E  STRM_URALS_DIESEL_1
 E  TSTRM_URALS_DIESEL_1
 E  STRM_URALS_VGO_1
 E  TSTRM_URALS_VGO_1
 E  STRM_URALS_RESIDUE_1
 E  TSTRM_URALS_RESIDUE_1
 E  FSTRM_URALS_NAPHTHA_1
 E  FSTRM_URALS_DIESEL_1
 E  CBAL_MURBAN_1
 E  STRM_MURBAN_NAPHTHA_1
 E  TSTRM_MURBAN_NAPHTHA_1
 E  STRM_MURBAN_KERO_1
 E  TSTRM_MURBAN_KERO_1
 E  STRM_MURBAN_DIESEL_1
 E  TSTRM_MURBAN_DIESEL_1
 E  STRM_MURBAN_VGO_1
 E  TSTRM_MURBAN_VGO_1
 E  STRM_MURBAN_RESIDUE_1
 E  TSTRM_MURBAN_RESIDUE_1
 E  FSTRM_MURBAN_NAPHTHA_1
 E  FSTRM_MURBAN_DIESEL_1
 E  CBAL_ES_SIDER_1
 E  STRM_ES_SIDER_NAPHTHA_1
 E  TSTRM_ES_SIDER_NAPHTHA_1
 E  STRM_ES_SIDER_KERO_1
 E  TSTRM_ES_SIDER_KERO_1
 E  STRM_ES_SIDER_DIESEL_1
 E  TSTRM_ES_SIDER_DIESEL_1
 E  STRM_ES_SIDER_VGO_1
 E  TSTRM_ES_SIDER_VGO_1
 E  STRM_ES_SIDER_RESIDUE_1
 E  TSTRM_ES_SIDER_RESIDUE_1
 E  FSTRM_ES_SIDER_NAPHTHA_1
 E  FSTRM_ES_SIDER_DIESEL_1
 E  CBAL_QUA_IBOE_1
 E  STRM_QUA_IBOE_NAPHTHA_1
 E  TSTRM_QUA_IBOE_NAPHTHA_1
 E  STRM_QUA_IBOE_KERO_1
 E  TSTRM_QUA_IBOE_KERO_1
 E  STRM_QUA_IBOE_DIESEL_1
 E  TSTRM_QUA_IBOE_DIESEL_1
 E  STRM_QUA_IBOE_VGO_1
 E  TSTRM_QUA_IBOE_VGO_1
 E  STRM_QUA_IBOE_RESIDUE_1
 E  TSTRM_QUA_IBOE_RESIDUE_1
 E  FSTRM_QUA_IBOE_NAPHTHA_1
 E  FSTRM_QUA_IBOE_DIESEL_1
 L  FCCCAP_1
 L  HDTCAP_1
 E  PBAL_GASOLINE_1
 L  QUAL_GASOLINE_1
 E  PBAL_JET_1
 L  QUAL_JET_1
 E  PBAL_DIESEL_P_1
 L  QUAL_DIESEL_P_1
 E  PBAL_FUELOIL_1
 L  QUAL_FUELOIL_1
 L  CDUCAP_2
 E  CBAL_BOMBAY_HIGH_2
 E  STRM_BOMBAY_HIGH_NAPHTHA_2
 E  TSTRM_BOMBAY_HIGH_NAPHTHA_2
 E  STRM_BOMBAY_HIGH_KERO_2
 E  TSTRM_BOMBAY_HIGH_KERO_2
 E  STRM_BOMBAY_HIGH_DIESEL_2
 E  TSTRM_BOMBAY_HIGH_DIESEL_2
 E  STRM_BOMBAY_HIGH_VGO_2
 E  TSTRM_BOMBAY_HIGH_VGO_2
 E  STRM_BOMBAY_HIGH_RESIDUE_2
 E  TSTRM_BOMBAY_HIGH_RESIDUE_2
 E  FSTRM_BOMBAY_HIGH_NAPHTHA_2
 E  FSTRM_BOMBAY_HIGH_DIESEL_2
 E  CBAL_ARAB_LIGHT_2
 E  STRM_ARAB_LIGHT_NAPHTHA_2
 E  TSTRM_ARAB_LIGHT_NAPHTHA_2
 E  STRM_ARAB_LIGHT_KERO_2
 E  TSTRM_ARAB_LIGHT_KERO_2
 E  STRM_ARAB_LIGHT_DIESEL_2
 E  TSTRM_ARAB_LIGHT_DIESEL_2
 E  STRM_ARAB_LIGHT_VGO_2
 E  TSTRM_ARAB_LIGHT_VGO_2
 E  STRM_ARAB_LIGHT_RESIDUE_2
 E  TSTRM_ARAB_LIGHT_RESIDUE_2
 E  FSTRM_ARAB_LIGHT_NAPHTHA_2
 E  FSTRM_ARAB_LIGHT_DIESEL_2
 E  CBAL_ARAB_HEAVY_2
 E  STRM_ARAB_HEAVY_NAPHTHA_2
 E  TSTRM_ARAB_HEAVY_NAPHTHA_2
 E  STRM_ARAB_HEAVY_KERO_2
 E  TSTRM_ARAB_HEAVY_KERO_2
 E  STRM_ARAB_HEAVY_DIESEL_2
 E  TSTRM_ARAB_HEAVY_DIESEL_2
 E  STRM_ARAB_HEAVY_VGO_2
 E  TSTRM_ARAB_HEAVY_VGO_2
 E  STRM_ARAB_HEAVY_RESIDUE_2
 E  TSTRM_ARAB_HEAVY_RESIDUE_2
 E  FSTRM_ARAB_HEAVY_NAPHTHA_2
 E  FSTRM_ARAB_HEAVY_DIESEL_2
 E  CBAL_BASRAH_2
 E  STRM_BASRAH_NAPHTHA_2
 E  TSTRM_BASRAH_NAPHTHA_2
 E  STRM_BASRAH_KERO_2
 E  TSTRM_BASRAH_KERO_2
 E  STRM_BASRAH_DIESEL_2
 E  TSTRM_BASRAH_DIESEL_2
 E  STRM_BASRAH_VGO_2
 E  TSTRM_BASRAH_VGO_2
 E  STRM_BASRAH_RESIDUE_2
 E  TSTRM_BASRAH_RESIDUE_2
 E  FSTRM_BASRAH_NAPHTHA_2
 E  FSTRM_BASRAH_DIESEL_2
 E  CBAL_URALS_2
 E  STRM_URALS_NAPHTHA_2
 E  TSTRM_URALS_NAPHTHA_2
 E  STRM_URALS_KERO_2
 E  TSTRM_URALS_KERO_2
 E  STRM_URALS_DIESEL_2
 E  TSTRM_URALS_DIESEL_2
 E  STRM_URALS_VGO_2
 E  TSTRM_URALS_VGO_2
 E  STRM_URALS_RESIDUE_2
 E  TSTRM_URALS_RESIDUE_2
 E  FSTRM_URALS_NAPHTHA_2
 E  FSTRM_URALS_DIESEL_2
 E  CBAL_MURBAN_2
 E  STRM_MURBAN_NAPHTHA_2
 E  TSTRM_MURBAN_NAPHTHA_2
 E  STRM_MURBAN_KERO_2
 E  TSTRM_MURBAN_KERO_2
 E  STRM_MURBAN_DIESEL_2
 E  TSTRM_MURBAN_DIESEL_2
 E  STRM_MURBAN_VGO_2
 E  TSTRM_MURBAN_VGO_2
 E  STRM_MURBAN_RESIDUE_2
 E  TSTRM_MURBAN_RESIDUE_2
 E  FSTRM_MURBAN_NAPHTHA_2
 E  FSTRM_MURBAN_DIESEL_2
 E  CBAL_ES_SIDER_2
 E  STRM_ES_SIDER_NAPHTHA_2
 E  TSTRM_ES_SIDER_NAPHTHA_2
 E  STRM_ES_SIDER_KERO_2
 E  TSTRM_ES_SIDER_KERO_2
 E  STRM_ES_SIDER_DIESEL_2
 E  TSTRM_ES_SIDER_DIESEL_2
 E  STRM_ES_SIDER_VGO_2
 E  TSTRM_ES_SIDER_VGO_2
 E  STRM_ES_SIDER_RESIDUE_2
 E  TSTRM_ES_SIDER_RESIDUE_2
 E  FSTRM_ES_SIDER_NAPHTHA_2
 E  FSTRM_ES_SIDER_DIESEL_2
 E  CBAL_QUA_IBOE_2
 E  STRM_QUA_IBOE_NAPHTHA_2
 E  TSTRM_QUA_IBOE_NAPHTHA_2
 E  STRM_QUA_IBOE_KERO_2
 E  TSTRM_QUA_IBOE_KERO_2
 E  STRM_QUA_IBOE_DIESEL_2
 E  TSTRM_QUA_IBOE_DIESEL_2
 E  STRM_QUA_IBOE_VGO_2
 E  TSTRM_QUA_IBOE_VGO_2
 E  STRM_QUA_IBOE_RESIDUE_2
 E  TSTRM_QUA_IBOE_RESIDUE_2
 E  FSTRM_QUA_IBOE_NAPHTHA_2
 E  FSTRM_QUA_IBOE_DIESEL_2
 L  FCCCAP_2
 L  HDTCAP_2
 E  PBAL_GASOLINE_2
 L  QUAL_GASOLINE_2
 E  PBAL_JET_2
 L  QUAL_JET_2
 E  PBAL_DIESEL_P_2
 L  QUAL_DIESEL_P_2
 E  PBAL_FUELOIL_2
 L  QUAL_FUELOIL_2
 L  CDUCAP_3
 E  CBAL_BOMBAY_HIGH_3
 E  STRM_BOMBAY_HIGH_NAPHTHA_3
 E  TSTRM_BOMBAY_HIGH_NAPHTHA_3
 E  STRM_BOMBAY_HIGH_KERO_3
 E  TSTRM_BOMBAY_HIGH_KERO_3
 E  STRM_BOMBAY_HIGH_DIESEL_3
 E  TSTRM_BOMBAY_HIGH_DIESEL_3
 E  STRM_BOMBAY_HIGH_VGO_3
 E  TSTRM_BOMBAY_HIGH_VGO_3
 E  STRM_BOMBAY_HIGH_RESIDUE_3
 E  TSTRM_BOMBAY_HIGH_RESIDUE_3
 E  FSTRM_BOMBAY_HIGH_NAPHTHA_3
 E  FSTRM_BOMBAY_HIGH_DIESEL_3
 E  CBAL_ARAB_LIGHT_3
 E  STRM_ARAB_LIGHT_NAPHTHA_3
 E  TSTRM_ARAB_LIGHT_NAPHTHA_3
 E  STRM_ARAB_LIGHT_KERO_3
 E  TSTRM_ARAB_LIGHT_KERO_3
 E  STRM_ARAB_LIGHT_DIESEL_3
 E  TSTRM_ARAB_LIGHT_DIESEL_3
 E  STRM_ARAB_LIGHT_VGO_3
 E  TSTRM_ARAB_LIGHT_VGO_3
 E  STRM_ARAB_LIGHT_RESIDUE_3
 E  TSTRM_ARAB_LIGHT_RESIDUE_3
 E  FSTRM_ARAB_LIGHT_NAPHTHA_3
 E  FSTRM_ARAB_LIGHT_DIESEL_3
 E  CBAL_ARAB_HEAVY_3
 E  STRM_ARAB_HEAVY_NAPHTHA_3
 E  TSTRM_ARAB_HEAVY_NAPHTHA_3
 E  STRM_ARAB_HEAVY_KERO_3
 E  TSTRM_ARAB_HEAVY_KERO_3
 E  STRM_ARAB_HEAVY_DIESEL_3
 E  TSTRM_ARAB_HEAVY_DIESEL_3
 E  STRM_ARAB_HEAVY_VGO_3
 E  TSTRM_ARAB_HEAVY_VGO_3
 E  STRM_ARAB_HEAVY_RESIDUE_3
 E  TSTRM_ARAB_HEAVY_RESIDUE_3
 E  FSTRM_ARAB_HEAVY_NAPHTHA_3
 E  FSTRM_ARAB_HEAVY_DIESEL_3
 E  CBAL_BASRAH_3
 E  STRM_BASRAH_NAPHTHA_3
 E  TSTRM_BASRAH_NAPHTHA_3
 E  STRM_BASRAH_KERO_3
 E  TSTRM_BASRAH_KERO_3
 E  STRM_BASRAH_DIESEL_3
 E  TSTRM_BASRAH_DIESEL_3
 E  STRM_BASRAH_VGO_3
 E  TSTRM_BASRAH_VGO_3
 E  STRM_BASRAH_RESIDUE_3
 E  TSTRM_BASRAH_RESIDUE_3
 E  FSTRM_BASRAH_NAPHTHA_3
 E  FSTRM_BASRAH_DIESEL_3
 E  CBAL_URALS_3
 E  STRM_URALS_NAPHTHA_3
 E  TSTRM_URALS_NAPHTHA_3
 E  STRM_URALS_KERO_3
 E  TSTRM_URALS_KERO_3
 E  STRM_URALS_DIESEL_3
 E  TSTRM_URALS_DIESEL_3
 E  STRM_URALS_VGO_3
 E  TSTRM_URALS_VGO_3
 E  STRM_URALS_RESIDUE_3
 E  TSTRM_URALS_RESIDUE_3
 E  FSTRM_URALS_NAPHTHA_3
 E  FSTRM_URALS_DIESEL_3
 E  CBAL_MURBAN_3
 E  STRM_MURBAN_NAPHTHA_3
 E  TSTRM_MURBAN_NAPHTHA_3
 E  STRM_MURBAN_KERO_3
 E  TSTRM_MURBAN_KERO_3
 E  STRM_MURBAN_DIESEL_3
 E  TSTRM_MURBAN_DIESEL_3
 E  STRM_MURBAN_VGO_3
 E  TSTRM_MURBAN_VGO_3
 E  STRM_MURBAN_RESIDUE_3
 E  TSTRM_MURBAN_RESIDUE_3
 E  FSTRM_MURBAN_NAPHTHA_3
 E  FSTRM_MURBAN_DIESEL_3
 E  CBAL_ES_SIDER_3
 E  STRM_ES_SIDER_NAPHTHA_3
 E  TSTRM_ES_SIDER_NAPHTHA_3
 E  STRM_ES_SIDER_KERO_3
 E  TSTRM_ES_SIDER_KERO_3
 E  STRM_ES_SIDER_DIESEL_3
 E  TSTRM_ES_SIDER_DIESEL_3
 E  STRM_ES_SIDER_VGO_3
 E  TSTRM_ES_SIDER_VGO_3
 E  STRM_ES_SIDER_RESIDUE_3
 E  TSTRM_ES_SIDER_RESIDUE_3
 E  FSTRM_ES_SIDER_NAPHTHA_3
 E  FSTRM_ES_SIDER_DIESEL_3
 E  CBAL_QUA_IBOE_3
 E  STRM_QUA_IBOE_NAPHTHA_3
 E  TSTRM_QUA_IBOE_NAPHTHA_3
 E  STRM_QUA_IBOE_KERO_3
 E  TSTRM_QUA_IBOE_KERO_3
 E  STRM_QUA_IBOE_DIESEL_3
 E  TSTRM_QUA_IBOE_DIESEL_3
 E  STRM_QUA_IBOE_VGO_3
 E  TSTRM_QUA_IBOE_VGO_3
 E  STRM_QUA_IBOE_RESIDUE_3
 E  TSTRM_QUA_IBOE_RESIDUE_3
 E  FSTRM_QUA_IBOE_NAPHTHA_3
 E  FSTRM_QUA_IBOE_DIESEL_3
 L  FCCCAP_3
 L  HDTCAP_3
 E  PBAL_GASOLINE_3
 L  QUAL_GASOLINE_3
 E  PBAL_JET_3
 L  QUAL_JET_3
 E  PBAL_DIESEL_P_3
 L  QUAL_DIESEL_P_3
 E  PBAL_FUELOIL_3
 L  QUAL_FUELOIL_3
 L  CDUCAP_4
 E  CBAL_BOMBAY_HIGH_4
 E  STRM_BOMBAY_HIGH_NAPHTHA_4
 E  TSTRM_BOMBAY_HIGH_NAPHTHA_4
 E  STRM_BOMBAY_HIGH_KERO_4
 E  TSTRM_BOMBAY_HIGH_KERO_4
 E  STRM_BOMBAY_HIGH_DIESEL_4
 E  TSTRM_BOMBAY_HIGH_DIESEL_4
 E  STRM_BOMBAY_HIGH_VGO_4
 E  TSTRM_BOMBAY_HIGH_VGO_4
 E  STRM_BOMBAY_HIGH_RESIDUE_4
 E  TSTRM_BOMBAY_HIGH_RESIDUE_4
 E  FSTRM_BOMBAY_HIGH_NAPHTHA_4
 E  FSTRM_BOMBAY_HIGH_DIESEL_4
 E  CBAL_ARAB_LIGHT_4
 E  STRM_ARAB_LIGHT_NAPHTHA_4
 E  TSTRM_ARAB_LIGHT_NAPHTHA_4
 E  STRM_ARAB_LIGHT_KERO_4
 E  TSTRM_ARAB_LIGHT_KERO_4
 E  STRM_ARAB_LIGHT_DIESEL_4
 E  TSTRM_ARAB_LIGHT_DIESEL_4
 E  STRM_ARAB_LIGHT_VGO_4
 E  TSTRM_ARAB_LIGHT_VGO_4
 E  STRM_ARAB_LIGHT_RESIDUE_4
 E  TSTRM_ARAB_LIGHT_RESIDUE_4
 E  FSTRM_ARAB_LIGHT_NAPHTHA_4
 E  FSTRM_ARAB_LIGHT_DIESEL_4
 E  CBAL_ARAB_HEAVY_4
 E  STRM_ARAB_HEAVY_NAPHTHA_4
 E  TSTRM_ARAB_HEAVY_NAPHTHA_4
 E  STRM_ARAB_HEAVY_KERO_4
 E  TSTRM_ARAB_HEAVY_KERO_4
 E  STRM_ARAB_HEAVY_DIESEL_4
 E  TSTRM_ARAB_HEAVY_DIESEL_4
 E  STRM_ARAB_HEAVY_VGO_4
 E  TSTRM_ARAB_HEAVY_VGO_4
 E  STRM_ARAB_HEAVY_RESIDUE_4
 E  TSTRM_ARAB_HEAVY_RESIDUE_4
 E  FSTRM_ARAB_HEAVY_NAPHTHA_4
 E  FSTRM_ARAB_HEAVY_DIESEL_4
 E  CBAL_BASRAH_4
 E  STRM_BASRAH_NAPHTHA_4
 E  TSTRM_BASRAH_NAPHTHA_4
 E  STRM_BASRAH_KERO_4
 E  TSTRM_BASRAH_KERO_4
 E  STRM_BASRAH_DIESEL_4
 E  TSTRM_BASRAH_DIESEL_4
 E  STRM_BASRAH_VGO_4
 E  TSTRM_BASRAH_VGO_4
 E  STRM_BASRAH_RESIDUE_4
 E  TSTRM_BASRAH_RESIDUE_4
 E  FSTRM_BASRAH_NAPHTHA_4
 E  FSTRM_BASRAH_DIESEL_4
 E  CBAL_URALS_4
 E  STRM_URALS_NAPHTHA_4
 E  TSTRM_URALS_NAPHTHA_4
 E  STRM_URALS_KERO_4
 E  TSTRM_URALS_KERO_4
 E  STRM_URALS_DIESEL_4
 E  TSTRM_URALS_DIESEL_4
 E  STRM_URALS_VGO_4
 E  TSTRM_URALS_VGO_4
 E  STRM_URALS_RESIDUE_4
 E  TSTRM_URALS_RESIDUE_4
 E  FSTRM_URALS_NAPHTHA_4
 E  FSTRM_URALS_DIESEL_4
 E  CBAL_MURBAN_4
 E  STRM_MURBAN_NAPHTHA_4
 E  TSTRM_MURBAN_NAPHTHA_4
 E  STRM_MURBAN_KERO_4
 E  TSTRM_MURBAN_KERO_4
 E  STRM_MURBAN_DIESEL_4
 E  TSTRM_MURBAN_DIESEL_4
 E  STRM_MURBAN_VGO_4
 E  TSTRM_MURBAN_VGO_4
 E  STRM_MURBAN_RESIDUE_4
 E  TSTRM_MURBAN_RESIDUE_4
 E  FSTRM_MURBAN_NAPHTHA_4
 E  FSTRM_MURBAN_DIESEL_4
 E  CBAL_ES_SIDER_4
 E  STRM_ES_SIDER_NAPHTHA_4
 E  TSTRM_ES_SIDER_NAPHTHA_4
 E  STRM_ES_SIDER_KERO_4
 E  TSTRM_ES_SIDER_KERO_4
 E  STRM_ES_SIDER_DIESEL_4
 E  TSTRM_ES_SIDER_DIESEL_4
 E  STRM_ES_SIDER_VGO_4
 E  TSTRM_ES_SIDER_VGO_4
 E  STRM_ES_SIDER_RESIDUE_4
 E  TSTRM_ES_SIDER_RESIDUE_4
 E  FSTRM_ES_SIDER_NAPHTHA_4
 E  FSTRM_ES_SIDER_DIESEL_4
 E  CBAL_QUA_IBOE_4
 E  STRM_QUA_IBOE_NAPHTHA_4
 E  TSTRM_QUA_IBOE_NAPHTHA_4
 E  STRM_QUA_IBOE_KERO_4
 E  TSTRM_QUA_IBOE_KERO_4
 E  STRM_QUA_IBOE_DIESEL_4
 E  TSTRM_QUA_IBOE_DIESEL_4
 E  STRM_QUA_IBOE_VGO_4
 E  TSTRM_QUA_IBOE_VGO_4
 E  STRM_QUA_IBOE_RESIDUE_4
 E  TSTRM_QUA_IBOE_RESIDUE_4
 E  FSTRM_QUA_IBOE_NAPHTHA_4
 E  FSTRM_QUA_IBOE_DIESEL_4
 L  FCCCAP_4
 L  HDTCAP_4
 E  PBAL_GASOLINE_4
 L  QUAL_GASOLINE_4
 E  PBAL_JET_4
 L  QUAL_JET_4
 E  PBAL_DIESEL_P_4
 L  QUAL_DIESEL_P_4
 E  PBAL_FUELOIL_4
 L  QUAL_FUELOIL_4
 L  CDUCAP_5
 E  CBAL_BOMBAY_HIGH_5
 E  STRM_BOMBAY_HIGH_NAPHTHA_5
 E  TSTRM_BOMBAY_HIGH_NAPHTHA_5
 E  STRM_BOMBAY_HIGH_KERO_5
 E  TSTRM_BOMBAY_HIGH_KERO_5
 E  STRM_BOMBAY_HIGH_DIESEL_5
 E  TSTRM_BOMBAY_HIGH_DIESEL_5
 E  STRM_BOMBAY_HIGH_VGO_5
 E  TSTRM_BOMBAY_HIGH_VGO_5
 E  STRM_BOMBAY_HIGH_RESIDUE_5
 E  TSTRM_BOMBAY_HIGH_RESIDUE_5
 E  FSTRM_BOMBAY_HIGH_NAPHTHA_5
 E  FSTRM_BOMBAY_HIGH_DIESEL_5
 E  CBAL_ARAB_LIGHT_5
 E  STRM_ARAB_LIGHT_NAPHTHA_5
 E  TSTRM_ARAB_LIGHT_NAPHTHA_5
 E  STRM_ARAB_LIGHT_KERO_5
 E  TSTRM_ARAB_LIGHT_KERO_5
 E  STRM_ARAB_LIGHT_DIESEL_5
 E  TSTRM_ARAB_LIGHT_DIESEL_5
 E  STRM_ARAB_LIGHT_VGO_5
 E  TSTRM_ARAB_LIGHT_VGO_5
 E  STRM_ARAB_LIGHT_RESIDUE_5
 E  TSTRM_ARAB_LIGHT_RESIDUE_5
 E  FSTRM_ARAB_LIGHT_NAPHTHA_5
 E  FSTRM_ARAB_LIGHT_DIESEL_5
 E  CBAL_ARAB_HEAVY_5
 E  STRM_ARAB_HEAVY_NAPHTHA_5
 E  TSTRM_ARAB_HEAVY_NAPHTHA_5
 E  STRM_ARAB_HEAVY_KERO_5
 E  TSTRM_ARAB_HEAVY_KERO_5
 E  STRM_ARAB_HEAVY_DIESEL_5
 E  TSTRM_ARAB_HEAVY_DIESEL_5
 E  STRM_ARAB_HEAVY_VGO_5
 E  TSTRM_ARAB_HEAVY_VGO_5
 E  STRM_ARAB_HEAVY_RESIDUE_5
 E  TSTRM_ARAB_HEAVY_RESIDUE_5
 E  FSTRM_ARAB_HEAVY_NAPHTHA_5
 E  FSTRM_ARAB_HEAVY_DIESEL_5
 E  CBAL_BASRAH_5
 E  STRM_BASRAH_NAPHTHA_5
 E  TSTRM_BASRAH_NAPHTHA_5
 E  STRM_BASRAH_KERO_5
 E  TSTRM_BASRAH_KERO_5
 E  STRM_BASRAH_DIESEL_5
 E  TSTRM_BASRAH_DIESEL_5
 E  STRM_BASRAH_VGO_5
 E  TSTRM_BASRAH_VGO_5
 E  STRM_BASRAH_RESIDUE_5
 E  TSTRM_BASRAH_RESIDUE_5
 E  FSTRM_BASRAH_NAPHTHA_5
 E  FSTRM_BASRAH_DIESEL_5
 E  CBAL_URALS_5
 E  STRM_URALS_NAPHTHA_5
 E  TSTRM_URALS_NAPHTHA_5
 E  STRM_URALS_KERO_5
 E  TSTRM_URALS_KERO_5
 E  STRM_URALS_DIESEL_5
 E  TSTRM_URALS_DIESEL_5
 E  STRM_URALS_VGO_5
 E  TSTRM_URALS_VGO_5
 E  STRM_URALS_RESIDUE_5
 E  TSTRM_URALS_RESIDUE_5
 E  FSTRM_URALS_NAPHTHA_5
 E  FSTRM_URALS_DIESEL_5
 E  CBAL_MURBAN_5
 E  STRM_MURBAN_NAPHTHA_5
 E  TSTRM_MURBAN_NAPHTHA_5
 E  STRM_MURBAN_KERO_5
 E  TSTRM_MURBAN_KERO_5
 E  STRM_MURBAN_DIESEL_5
 E  TSTRM_MURBAN_DIESEL_5
 E  STRM_MURBAN_VGO_5
 E  TSTRM_MURBAN_VGO_5
 E  STRM_MURBAN_RESIDUE_5
 E  TSTRM_MURBAN_RESIDUE_5
 E  FSTRM_MURBAN_NAPHTHA_5
 E  FSTRM_MURBAN_DIESEL_5
 E  CBAL_ES_SIDER_5
 E  STRM_ES_SIDER_NAPHTHA_5
 E  TSTRM_ES_SIDER_NAPHTHA_5
 E  STRM_ES_SIDER_KERO_5
 E  TSTRM_ES_SIDER_KERO_5
 E  STRM_ES_SIDER_DIESEL_5
 E  TSTRM_ES_SIDER_DIESEL_5
 E  STRM_ES_SIDER_VGO_5
 E  TSTRM_ES_SIDER_VGO_5
 E  STRM_ES_SIDER_RESIDUE_5
 E  TSTRM_ES_SIDER_RESIDUE_5
 E  FSTRM_ES_SIDER_NAPHTHA_5
 E  FSTRM_ES_SIDER_DIESEL_5
 E  CBAL_QUA_IBOE_5
 E  STRM_QUA_IBOE_NAPHTHA_5
 E  TSTRM_QUA_IBOE_NAPHTHA_5
 E  STRM_QUA_IBOE_KERO_5
 E  TSTRM_QUA_IBOE_KERO_5
 E  STRM_QUA_IBOE_DIESEL_5
 E  TSTRM_QUA_IBOE_DIESEL_5
 E  STRM_QUA_IBOE_VGO_5
 E  TSTRM_QUA_IBOE_VGO_5
 E  STRM_QUA_IBOE_RESIDUE_5
 E  TSTRM_QUA_IBOE_RESIDUE_5
 E  FSTRM_QUA_IBOE_NAPHTHA_5
 E  FSTRM_QUA_IBOE_DIESEL_5
 L  FCCCAP_5
 L  HDTCAP_5
 E  PBAL_GASOLINE_5
 L  QUAL_GASOLINE_5
 E  PBAL_JET_5
 L  QUAL_JET_5
 E  PBAL_DIESEL_P_5
 L  QUAL_DIESEL_P_5
 E  PBAL_FUELOIL_5
 L  QUAL_FUELOIL_5
 L  CDUCAP_6
 E  CBAL_BOMBAY_HIGH_6
 E  STRM_BOMBAY_HIGH_NAPHTHA_6
 E  TSTRM_BOMBAY_HIGH_NAPHTHA_6
 E  STRM_BOMBAY_HIGH_KERO_6
 E  TSTRM_BOMBAY_HIGH_KERO_6
 E  STRM_BOMBAY_HIGH_DIESEL_6
 E  TSTRM_BOMBAY_HIGH_DIESEL_6
 E  STRM_BOMBAY_HIGH_VGO_6
 E  TSTRM_BOMBAY_HIGH_VGO_6
 E  STRM_BOMBAY_HIGH_RESIDUE_6
 E  TSTRM_BOMBAY_HIGH_RESIDUE_6
 E  FSTRM_BOMBAY_HIGH_NAPHTHA_6
 E  FSTRM_BOMBAY_HIGH_DIESEL_6
 E  CBAL_ARAB_LIGHT_6
 E  STRM_ARAB_LIGHT_NAPHTHA_6
 E  TSTRM_ARAB_LIGHT_NAPHTHA_6
 E  STRM_ARAB_LIGHT_KERO_6
 E  TSTRM_ARAB_LIGHT_KERO_6
 E  STRM_ARAB_LIGHT_DIESEL_6
 E  TSTRM_ARAB_LIGHT_DIESEL_6
 E  STRM_ARAB_LIGHT_VGO_6
 E  TSTRM_ARAB_LIGHT_VGO_6
 E  STRM_ARAB_LIGHT_RESIDUE_6
 E  TSTRM_ARAB_LIGHT_RESIDUE_6
 E  FSTRM_ARAB_LIGHT_NAPHTHA_6
 E  FSTRM_ARAB_LIGHT_DIESEL_6
 E  CBAL_ARAB_HEAVY_6
 E  STRM_ARAB_HEAVY_NAPHTHA_6
 E  TSTRM_ARAB_HEAVY_NAPHTHA_6
 E  STRM_ARAB_HEAVY_KERO_6
 E  TSTRM_ARAB_HEAVY_KERO_6
 E  STRM_ARAB_HEAVY_DIESEL_6
 E  TSTRM_ARAB_HEAVY_DIESEL_6
 E  STRM_ARAB_HEAVY_VGO_6
 E  TSTRM_ARAB_HEAVY_VGO_6
 E  STRM_ARAB_HEAVY_RESIDUE_6
 E  TSTRM_ARAB_HEAVY_RESIDUE_6
 E  FSTRM_ARAB_HEAVY_NAPHTHA_6
 E  FSTRM_ARAB_HEAVY_DIESEL_6
 E  CBAL_BASRAH_6
 E  STRM_BASRAH_NAPHTHA_6
 E  TSTRM_BASRAH_NAPHTHA_6
 E  STRM_BASRAH_KERO_6
 E  TSTRM_BASRAH_KERO_6
 E  STRM_BASRAH_DIESEL_6
 E  TSTRM_BASRAH_DIESEL_6
 E  STRM_BASRAH_VGO_6
 E  TSTRM_BASRAH_VGO_6
 E  STRM_BASRAH_RESIDUE_6
 E  TSTRM_BASRAH_RESIDUE_6
 E  FSTRM_BASRAH_NAPHTHA_6
 E  FSTRM_BASRAH_DIESEL_6
 E  CBAL_URALS_6
 E  STRM_URALS_NAPHTHA_6
 E  TSTRM_URALS_NAPHTHA_6
 E  STRM_URALS_KERO_6
 E  TSTRM_URALS_KERO_6
 E  STRM_URALS_DIESEL_6
 E  TSTRM_URALS_DIESEL_6
 E  STRM_URALS_VGO_6
 E  TSTRM_URALS_VGO_6
 E  STRM_URALS_RESIDUE_6
 E  TSTRM_URALS_RESIDUE_6
 E  FSTRM_URALS_NAPHTHA_6
 E  FSTRM_URALS_DIESEL_6
 E  CBAL_MURBAN_6
 E  STRM_MURBAN_NAPHTHA_6
 E  TSTRM_MURBAN_NAPHTHA_6
 E  STRM_MURBAN_KERO_6
 E  TSTRM_MURBAN_KERO_6
 E  STRM_MURBAN_DIESEL_6
 E  TSTRM_MURBAN_DIESEL_6
 E  STRM_MURBAN_VGO_6
 E  TSTRM_MURBAN_VGO_6
 E  STRM_MURBAN_RESIDUE_6
 E  TSTRM_MURBAN_RESIDUE_6
 E  FSTRM_MURBAN_NAPHTHA_6
 E  FSTRM_MURBAN_DIESEL_6
 E  CBAL_ES_SIDER_6
 E  STRM_ES_SIDER_NAPHTHA_6
 E  TSTRM_ES_SIDER_NAPHTHA_6
 E  STRM_ES_SIDER_KERO_6
 E  TSTRM_ES_SIDER_KERO_6
 E  STRM_ES_SIDER_DIESEL_6
 E  TSTRM_ES_SIDER_DIESEL_6
 E  STRM_ES_SIDER_VGO_6
 E  TSTRM_ES_SIDER_VGO_6
 E  STRM_ES_SIDER_RESIDUE_6
 E  TSTRM_ES_SIDER_RESIDUE_6
 E  FSTRM_ES_SIDER_NAPHTHA_6
 E  FSTRM_ES_SIDER_DIESEL_6
 E  CBAL_QUA_IBOE_6
 E  STRM_QUA_IBOE_NAPHTHA_6
 E  TSTRM_QUA_IBOE_NAPHTHA_6
 E  STRM_QUA_IBOE_KERO_6
 E  TSTRM_QUA_IBOE_KERO_6
 E  STRM_QUA_IBOE_DIESEL_6
 E  TSTRM_QUA_IBOE_DIESEL_6
 E  STRM_QUA_IBOE_VGO_6
 E  TSTRM_QUA_IBOE_VGO_6
 E  STRM_QUA_IBOE_RESIDUE_6
 E  TSTRM_QUA_IBOE_RESIDUE_6
 E  FSTRM_QUA_IBOE_NAPHTHA_6
 E  FSTRM_QUA_IBOE_DIESEL_6
 L  FCCCAP_6
 L  HDTCAP_6
 E  PBAL_GASOLINE_6
 L  QUAL_GASOLINE_6
 E  PBAL_JET_6
 L  QUAL_JET_6
 E  PBAL_DIESEL_P_6
 L  QUAL_DIESEL_P_6
 E  PBAL_FUELOIL_6
 L  QUAL_FUELOIL_6
 L  CDUCAP_7
 E  CBAL_BOMBAY_HIGH_7
 E  STRM_BOMBAY_HIGH_NAPHTHA_7
 E  TSTRM_BOMBAY_HIGH_NAPHTHA_7
 E  STRM_BOMBAY_HIGH_KERO_7
 E  TSTRM_BOMBAY_HIGH_KERO_7
 E  STRM_BOMBAY_HIGH_DIESEL_7
 E  TSTRM_BOMBAY_HIGH_DIESEL_7
 E  STRM_BOMBAY_HIGH_VGO_7
 E  TSTRM_BOMBAY_HIGH_VGO_7
 E  STRM_BOMBAY_HIGH_RESIDUE_7
 E  TSTRM_BOMBAY_HIGH_RESIDUE_7
 E  FSTRM_BOMBAY_HIGH_NAPHTHA_7
 E  FSTRM_BOMBAY_HIGH_DIESEL_7
 E  CBAL_ARAB_LIGHT_7
 E  STRM_ARAB_LIGHT_NAPHTHA_7
 E  TSTRM_ARAB_LIGHT_NAPHTHA_7
 E  STRM_ARAB_LIGHT_KERO_7
 E  TSTRM_ARAB_LIGHT_KERO_7
 E  STRM_ARAB_LIGHT_DIESEL_7
 E  TSTRM_ARAB_LIGHT_DIESEL_7
 E  STRM_ARAB_LIGHT_VGO_7
 E  TSTRM_ARAB_LIGHT_VGO_7
 E  STRM_ARAB_LIGHT_RESIDUE_7
 E  TSTRM_ARAB_LIGHT_RESIDUE_7
 E  FSTRM_ARAB_LIGHT_NAPHTHA_7
 E  FSTRM_ARAB_LIGHT_DIESEL_7
 E  CBAL_ARAB_HEAVY_7
 E  STRM_ARAB_HEAVY_NAPHTHA_7
 E  TSTRM_ARAB_HEAVY_NAPHTHA_7
 E  STRM_ARAB_HEAVY_KERO_7
 E  TSTRM_ARAB_HEAVY_KERO_7
 E  STRM_ARAB_HEAVY_DIESEL_7
 E  TSTRM_ARAB_HEAVY_DIESEL_7
 E  STRM_ARAB_HEAVY_VGO_7
 E  TSTRM_ARAB_HEAVY_VGO_7
 E  STRM_ARAB_HEAVY_RESIDUE_7
 E  TSTRM_ARAB_HEAVY_RESIDUE_7
 E  FSTRM_ARAB_HEAVY_NAPHTHA_7
 E  FSTRM_ARAB_HEAVY_DIESEL_7
 E  CBAL_BASRAH_7
 E  STRM_BASRAH_NAPHTHA_7
 E  TSTRM_BASRAH_NAPHTHA_7
 E  STRM_BASRAH_KERO_7
 E  TSTRM_BASRAH_KERO_7
 E  STRM_BASRAH_DIESEL_7
 E  TSTRM_BASRAH_DIESEL_7
 E  STRM_BASRAH_VGO_7
 E  TSTRM_BASRAH_VGO_7
 E  STRM_BASRAH_RESIDUE_7
 E  TSTRM_BASRAH_RESIDUE_7
 E  FSTRM_BASRAH_NAPHTHA_7
 E  FSTRM_BASRAH_DIESEL_7
 E  CBAL_URALS_7
 E  STRM_URALS_NAPHTHA_7
 E  TSTRM_URALS_NAPHTHA_7
 E  STRM_URALS_KERO_7
 E  TSTRM_URALS_KERO_7
 E  STRM_URALS_DIESEL_7
 E  TSTRM_URALS_DIESEL_7
 E  STRM_URALS_VGO_7
 E  TSTRM_URALS_VGO_7
 E  STRM_URALS_RESIDUE_7
 E  TSTRM_URALS_RESIDUE_7
 E  FSTRM_URALS_NAPHTHA_7
 E  FSTRM_URALS_DIESEL_7
 E  CBAL_MURBAN_7
 E  STRM_MURBAN_NAPHTHA_7
 E  TSTRM_MURBAN_NAPHTHA_7
 E  STRM_MURBAN_KERO_7
 E  TSTRM_MURBAN_KERO_7
 E  STRM_MURBAN_DIESEL_7
 E  TSTRM_MURBAN_DIESEL_7
 E  STRM_MURBAN_VGO_7
 E  TSTRM_MURBAN_VGO_7
 E  STRM_MURBAN_RESIDUE_7
 E  TSTRM_MURBAN_RESIDUE_7
 E  FSTRM_MURBAN_NAPHTHA_7
 E  FSTRM_MURBAN_DIESEL_7
 E  CBAL_ES_SIDER_7
 E  STRM_ES_SIDER_NAPHTHA_7
 E  TSTRM_ES_SIDER_NAPHTHA_7
 E  STRM_ES_SIDER_KERO_7
 E  TSTRM_ES_SIDER_KERO_7
 E  STRM_ES_SIDER_DIESEL_7
 E  TSTRM_ES_SIDER_DIESEL_7
 E  STRM_ES_SIDER_VGO_7
 E  TSTRM_ES_SIDER_VGO_7
 E  STRM_ES_SIDER_RESIDUE_7
 E  TSTRM_ES_SIDER_RESIDUE_7
 E  FSTRM_ES_SIDER_NAPHTHA_7
 E  FSTRM_ES_SIDER_DIESEL_7
 E  CBAL_QUA_IBOE_7
 E  STRM_QUA_IBOE_NAPHTHA_7
 E  TSTRM_QUA_IBOE_NAPHTHA_7
 E  STRM_QUA_IBOE_KERO_7
 E  TSTRM_QUA_IBOE_KERO_7
 E  STRM_QUA_IBOE_DIESEL_7
 E  TSTRM_QUA_IBOE_DIESEL_7
 E  STRM_QUA_IBOE_VGO_7
 E  TSTRM_QUA_IBOE_VGO_7
 E  STRM_QUA_IBOE_RESIDUE_7
 E  TSTRM_QUA_IBOE_RESIDUE_7
 E  FSTRM_QUA_IBOE_NAPHTHA_7
 E  FSTRM_QUA_IBOE_DIESEL_7
 L  FCCCAP_7
 L  HDTCAP_7
 E  PBAL_GASOLINE_7
 L  QUAL_GASOLINE_7
 E  PBAL_JET_7
 L  QUAL_JET_7
 E  PBAL_DIESEL_P_7
 L  QUAL_DIESEL_P_7
 E  PBAL_FUELOIL_7
 L  QUAL_FUELOIL_7
 L  CDUCAP_8
 E  CBAL_BOMBAY_HIGH_8
 E  STRM_BOMBAY_HIGH_NAPHTHA_8
 E  TSTRM_BOMBAY_HIGH_NAPHTHA_8
 E  STRM_BOMBAY_HIGH_KERO_8
 E  TSTRM_BOMBAY_HIGH_KERO_8
 E  STRM_BOMBAY_HIGH_DIESEL_8
 E  TSTRM_BOMBAY_HIGH_DIESEL_8
 E  STRM_BOMBAY_HIGH_VGO_8
 E  TSTRM_BOMBAY_HIGH_VGO_8
 E  STRM_BOMBAY_HIGH_RESIDUE_8
 E  TSTRM_BOMBAY_HIGH_RESIDUE_8
 E  FSTRM_BOMBAY_HIGH_NAPHTHA_8
 E  FSTRM_BOMBAY_HIGH_DIESEL_8
 E  CBAL_ARAB_LIGHT_8
 E  STRM_ARAB_LIGHT_NAPHTHA_8
 E  TSTRM_ARAB_LIGHT_NAPHTHA_8
 E  STRM_ARAB_LIGHT_KERO_8
 E  TSTRM_ARAB_LIGHT_KERO_8
 E  STRM_ARAB_LIGHT_DIESEL_8
 E  TSTRM_ARAB_LIGHT_DIESEL_8
 E  STRM_ARAB_LIGHT_VGO_8
 E  TSTRM_ARAB_LIGHT_VGO_8
 E  STRM_ARAB_LIGHT_RESIDUE_8
 E  TSTRM_ARAB_LIGHT_RESIDUE_8
 E  FSTRM_ARAB_LIGHT_NAPHTHA_8
 E  FSTRM_ARAB_LIGHT_DIESEL_8
 E  CBAL_ARAB_HEAVY_8
 E  STRM_ARAB_HEAVY_NAPHTHA_8
 E  TSTRM_ARAB_HEAVY_NAPHTHA_8
 E  STRM_ARAB_HEAVY_KERO_8
 E  TSTRM_ARAB_HEAVY_KERO_8
 E  STRM_ARAB_HEAVY_DIESEL_8
 E  TSTRM_ARAB_HEAVY_DIESEL_8
 E  STRM_ARAB_HEAVY_VGO_8
 E  TSTRM_ARAB_HEAVY_VGO_8
 E  STRM_ARAB_HEAVY_RESIDUE_8
 E  TSTRM_ARAB_HEAVY_RESIDUE_8
 E  FSTRM_ARAB_HEAVY_NAPHTHA_8
 E  FSTRM_ARAB_HEAVY_DIESEL_8
 E  CBAL_BASRAH_8
 E  STRM_BASRAH_NAPHTHA_8
 E  TSTRM_BASRAH_NAPHTHA_8
 E  STRM_BASRAH_KERO_8
 E  TSTRM_BASRAH_KERO_8
 E  STRM_BASRAH_DIESEL_8
 E  TSTRM_BASRAH_DIESEL_8
 E  STRM_BASRAH_VGO_8
 E  TSTRM_BASRAH_VGO_8
 E  STRM_BASRAH_RESIDUE_8
 E  TSTRM_BASRAH_RESIDUE_8
 E  FSTRM_BASRAH_NAPHTHA_8
 E  FSTRM_BASRAH_DIESEL_8
 E  CBAL_URALS_8
 E  STRM_URALS_NAPHTHA_8
 E  TSTRM_URALS_NAPHTHA_8
 E  STRM_URALS_KERO_8
 E  TSTRM_URALS_KERO_8
 E  STRM_URALS_DIESEL_8
 E  TSTRM_URALS_DIESEL_8
 E  STRM_URALS_VGO_8
 E  TSTRM_URALS_VGO_8
 E  STRM_URALS_RESIDUE_8
 E  TSTRM_URALS_RESIDUE_8
 E  FSTRM_URALS_NAPHTHA_8
 E  FSTRM_URALS_DIESEL_8
 E  CBAL_MURBAN_8
 E  STRM_MURBAN_NAPHTHA_8
 E  TSTRM_MURBAN_NAPHTHA_8
 E  STRM_MURBAN_KERO_8
 E  TSTRM_MURBAN_KERO_8
 E  STRM_MURBAN_DIESEL_8
 E  TSTRM_MURBAN_DIESEL_8
 E  STRM_MURBAN_VGO_8
 E  TSTRM_MURBAN_VGO_8
 E  STRM_MURBAN_RESIDUE_8
 E  TSTRM_MURBAN_RESIDUE_8
 E  FSTRM_MURBAN_NAPHTHA_8
 E  FSTRM_MURBAN_DIESEL_8
 E  CBAL_ES_SIDER_8
 E  STRM_ES_SIDER_NAPHTHA_8
 E  TSTRM_ES_SIDER_NAPHTHA_8
 E  STRM_ES_SIDER_KERO_8
 E  TSTRM_ES_SIDER_KERO_8
 E  STRM_ES_SIDER_DIESEL_8
 E  TSTRM_ES_SIDER_DIESEL_8
 E  STRM_ES_SIDER_VGO_8
 E  TSTRM_ES_SIDER_VGO_8
 E  STRM_ES_SIDER_RESIDUE_8
 E  TSTRM_ES_SIDER_RESIDUE_8
 E  FSTRM_ES_SIDER_NAPHTHA_8
 E  FSTRM_ES_SIDER_DIESEL_8
 E  CBAL_QUA_IBOE_8
 E  STRM_QUA_IBOE_NAPHTHA_8
 E  TSTRM_QUA_IBOE_NAPHTHA_8
 E  STRM_QUA_IBOE_KERO_8
 E  TSTRM_QUA_IBOE_KERO_8
 E  STRM_QUA_IBOE_DIESEL_8
 E  TSTRM_QUA_IBOE_DIESEL_8
 E  STRM_QUA_IBOE_VGO_8
 E  TSTRM_QUA_IBOE_VGO_8
 E  STRM_QUA_IBOE_RESIDUE_8
 E  TSTRM_QUA_IBOE_RESIDUE_8
 E  FSTRM_QUA_IBOE_NAPHTHA_8
 E  FSTRM_QUA_IBOE_DIESEL_8
 L  FCCCAP_8
 L  HDTCAP_8
 E  PBAL_GASOLINE_8
 L  QUAL_GASOLINE_8
 E  PBAL_JET_8
 L  QUAL_JET_8
 E  PBAL_DIESEL_P_8
 L  QUAL_DIESEL_P_8
 E  PBAL_FUELOIL_8
 L  QUAL_FUELOIL_8
 L  CDUCAP_9
 E  CBAL_BOMBAY_HIGH_9
 E  STRM_BOMBAY_HIGH_NAPHTHA_9
 E  TSTRM_BOMBAY_HIGH_NAPHTHA_9
 E  STRM_BOMBAY_HIGH_KERO_9
 E  TSTRM_BOMBAY_HIGH_KERO_9
 E  STRM_BOMBAY_HIGH_DIESEL_9
 E  TSTRM_BOMBAY_HIGH_DIESEL_9
 E  STRM_BOMBAY_HIGH_VGO_9
 E  TSTRM_BOMBAY_HIGH_VGO_9
 E  STRM_BOMBAY_HIGH_RESIDUE_9
 E  TSTRM_BOMBAY_HIGH_RESIDUE_9
 E  FSTRM_BOMBAY_HIGH_NAPHTHA_9
 E  FSTRM_BOMBAY_HIGH_DIESEL_9
 E  CBAL_ARAB_LIGHT_9
 E  STRM_ARAB_LIGHT_NAPHTHA_9
 E  TSTRM_ARAB_LIGHT_NAPHTHA_9
 E  STRM_ARAB_LIGHT_KERO_9
 E  TSTRM_ARAB_LIGHT_KERO_9
 E  STRM_ARAB_LIGHT_DIESEL_9
 E  TSTRM_ARAB_LIGHT_DIESEL_9
 E  STRM_ARAB_LIGHT_VGO_9
 E  TSTRM_ARAB_LIGHT_VGO_9
 E  STRM_ARAB_LIGHT_RESIDUE_9
 E  TSTRM_ARAB_LIGHT_RESIDUE_9
 E  FSTRM_ARAB_LIGHT_NAPHTHA_9
 E  FSTRM_ARAB_LIGHT_DIESEL_9
 E  CBAL_ARAB_HEAVY_9
 E  STRM_ARAB_HEAVY_NAPHTHA_9
 E  TSTRM_ARAB_HEAVY_NAPHTHA_9
 E  STRM_ARAB_HEAVY_KERO_9
 E  TSTRM_ARAB_HEAVY_KERO_9
 E  STRM_ARAB_HEAVY_DIESEL_9
 E  TSTRM_ARAB_HEAVY_DIESEL_9
 E  STRM_ARAB_HEAVY_VGO_9
 E  TSTRM_ARAB_HEAVY_VGO_9
 E  STRM_ARAB_HEAVY_RESIDUE_9
 E  TSTRM_ARAB_HEAVY_RESIDUE_9
 E  FSTRM_ARAB_HEAVY_NAPHTHA_9
 E  FSTRM_ARAB_HEAVY_DIESEL_9
 E  CBAL_BASRAH_9
 E  STRM_BASRAH_NAPHTHA_9
 E  TSTRM_BASRAH_NAPHTHA_9
 E  STRM_BASRAH_KERO_9
 E  TSTRM_BASRAH_KERO_9
 E  STRM_BASRAH_DIESEL_9
 E  TSTRM_BASRAH_DIESEL_9
 E  STRM_BASRAH_VGO_9
 E  TSTRM_BASRAH_VGO_9
 E  STRM_BASRAH_RESIDUE_9
 E  TSTRM_BASRAH_RESIDUE_9
 E  FSTRM_BASRAH_NAPHTHA_9
 E  FSTRM_BASRAH_DIESEL_9
 E  CBAL_URALS_9
 E  STRM_URALS_NAPHTHA_9
 E  TSTRM_URALS_NAPHTHA_9
 E  STRM_URALS_KERO_9
 E  TSTRM_URALS_KERO_9
 E  STRM_URALS_DIESEL_9
 E  TSTRM_URALS_DIESEL_9
 E  STRM_URALS_VGO_9
 E  TSTRM_URALS_VGO_9
 E  STRM_URALS_RESIDUE_9
 E  TSTRM_URALS_RESIDUE_9
 E  FSTRM_URALS_NAPHTHA_9
 E  FSTRM_URALS_DIESEL_9
 E  CBAL_MURBAN_9
 E  STRM_MURBAN_NAPHTHA_9
 E  TSTRM_MURBAN_NAPHTHA_9
 E  STRM_MURBAN_KERO_9
 E  TSTRM_MURBAN_KERO_9
 E  STRM_MURBAN_DIESEL_9
 E  TSTRM_MURBAN_DIESEL_9
 E  STRM_MURBAN_VGO_9
 E  TSTRM_MURBAN_VGO_9
 E  STRM_MURBAN_RESIDUE_9
 E  TSTRM_MURBAN_RESIDUE_9
 E  FSTRM_MURBAN_NAPHTHA_9
 E  FSTRM_MURBAN_DIESEL_9
 E  CBAL_ES_SIDER_9
 E  STRM_ES_SIDER_NAPHTHA_9
 E  TSTRM_ES_SIDER_NAPHTHA_9
 E  STRM_ES_SIDER_KERO_9
 E  TSTRM_ES_SIDER_KERO_9
 E  STRM_ES_SIDER_DIESEL_9
 E  TSTRM_ES_SIDER_DIESEL_9
 E  STRM_ES_SIDER_VGO_9
 E  TSTRM_ES_SIDER_VGO_9
 E  STRM_ES_SIDER_RESIDUE_9
 E  TSTRM_ES_SIDER_RESIDUE_9
 E  FSTRM_ES_SIDER_NAPHTHA_9
 E  FSTRM_ES_SIDER_DIESEL_9
 E  CBAL_QUA_IBOE_9
 E  STRM_QUA_IBOE_NAPHTHA_9
 E  TSTRM_QUA_IBOE_NAPHTHA_9
 E  STRM_QUA_IBOE_KERO_9
 E  TSTRM_QUA_IBOE_KERO_9
 E  STRM_QUA_IBOE_DIESEL_9
 E  TSTRM_QUA_IBOE_DIESEL_9
 E  STRM_QUA_IBOE_VGO_9
 E  TSTRM_QUA_IBOE_VGO_9
 E  STRM_QUA_IBOE_RESIDUE_9
 E  TSTRM_QUA_IBOE_RESIDUE_9
 E  FSTRM_QUA_IBOE_NAPHTHA_9
 E  FSTRM_QUA_IBOE_DIESEL_9
 L  FCCCAP_9
 L  HDTCAP_9
 E  PBAL_GASOLINE_9
 L  QUAL_GASOLINE_9
 E  PBAL_JET_9
 L  QUAL_JET_9
 E  PBAL_DIESEL_P_9
 L  QUAL_DIESEL_P_9
 E  PBAL_FUELOIL_9
 L  QUAL_FUELOIL_9
 L  CDUCAP_10
 E  CBAL_BOMBAY_HIGH_10
 E  STRM_BOMBAY_HIGH_NAPHTHA_10
 E  TSTRM_BOMBAY_HIGH_NAPHTHA_10
 E  STRM_BOMBAY_HIGH_KERO_10
 E  TSTRM_BOMBAY_HIGH_KERO_10
 E  STRM_BOMBAY_HIGH_DIESEL_10
 E  TSTRM_BOMBAY_HIGH_DIESEL_10
 E  STRM_BOMBAY_HIGH_VGO_10
 E  TSTRM_BOMBAY_HIGH_VGO_10
 E  STRM_BOMBAY_HIGH_RESIDUE_10
 E  TSTRM_BOMBAY_HIGH_RESIDUE_10
 E  FSTRM_BOMBAY_HIGH_NAPHTHA_10
 E  FSTRM_BOMBAY_HIGH_DIESEL_10
 E  CBAL_ARAB_LIGHT_10
 E  STRM_ARAB_LIGHT_NAPHTHA_10
 E  TSTRM_ARAB_LIGHT_NAPHTHA_10
 E  STRM_ARAB_LIGHT_KERO_10
 E  TSTRM_ARAB_LIGHT_KERO_10
 E  STRM_ARAB_LIGHT_DIESEL_10
 E  TSTRM_ARAB_LIGHT_DIESEL_10
 E  STRM_ARAB_LIGHT_VGO_10
 E  TSTRM_ARAB_LIGHT_VGO_10
 E  STRM_ARAB_LIGHT_RESIDUE_10
 E  TSTRM_ARAB_LIGHT_RESIDUE_10
 E  FSTRM_ARAB_LIGHT_NAPHTHA_10
 E  FSTRM_ARAB_LIGHT_DIESEL_10
 E  CBAL_ARAB_HEAVY_10
 E  STRM_ARAB_HEAVY_NAPHTHA_10
 E  TSTRM_ARAB_HEAVY_NAPHTHA_10
 E  STRM_ARAB_HEAVY_KERO_10
 E  TSTRM_ARAB_HEAVY_KERO_10
 E  STRM_ARAB_HEAVY_DIESEL_10
 E  TSTRM_ARAB_HEAVY_DIESEL_10
 E  STRM_ARAB_HEAVY_VGO_10
 E  TSTRM_ARAB_HEAVY_VGO_10
 E  STRM_ARAB_HEAVY_RESIDUE_10
 E  TSTRM_ARAB_HEAVY_RESIDUE_10
 E  FSTRM_ARAB_HEAVY_NAPHTHA_10
 E  FSTRM_ARAB_HEAVY_DIESEL_10
 E  CBAL_BASRAH_10
 E  STRM_BASRAH_NAPHTHA_10
 E  TSTRM_BASRAH_NAPHTHA_10
 E  STRM_BASRAH_KERO_10
 E  TSTRM_BASRAH_KERO_10
 E  STRM_BASRAH_DIESEL_10
 E  TSTRM_BASRAH_DIESEL_10
 E  STRM_BASRAH_VGO_10
 E  TSTRM_BASRAH_VGO_10
 E  STRM_BASRAH_RESIDUE_10
 E  TSTRM_BASRAH_RESIDUE_10
 E  FSTRM_BASRAH_NAPHTHA_10
 E  FSTRM_BASRAH_DIESEL_10
 E  CBAL_URALS_10
 E  STRM_URALS_NAPHTHA_10
 E  TSTRM_URALS_NAPHTHA_10
 E  STRM_URALS_KERO_10
 E  TSTRM_URALS_KERO_10
 E  STRM_URALS_DIESEL_10
 E  TSTRM_URALS_DIESEL_10
 E  STRM_URALS_VGO_10
 E  TSTRM_URALS_VGO_10
 E  STRM_URALS_RESIDUE_10
 E  TSTRM_URALS_RESIDUE_10
 E  FSTRM_URALS_NAPHTHA_10
 E  FSTRM_URALS_DIESEL_10
 E  CBAL_MURBAN_10
 E  STRM_MURBAN_NAPHTHA_10
 E  TSTRM_MURBAN_NAPHTHA_10
 E  STRM_MURBAN_KERO_10
 E  TSTRM_MURBAN_KERO_10
 E  STRM_MURBAN_DIESEL_10
 E  TSTRM_MURBAN_DIESEL_10
 E  STRM_MURBAN_VGO_10
 E  TSTRM_MURBAN_VGO_10
 E  STRM_MURBAN_RESIDUE_10
 E  TSTRM_MURBAN_RESIDUE_10
 E  FSTRM_MURBAN_NAPHTHA_10
 E  FSTRM_MURBAN_DIESEL_10
 E  CBAL_ES_SIDER_10
 E  STRM_ES_SIDER_NAPHTHA_10
 E  TSTRM_ES_SIDER_NAPHTHA_10
 E  STRM_ES_SIDER_KERO_10
 E  TSTRM_ES_SIDER_KERO_10
 E  STRM_ES_SIDER_DIESEL_10
 E  TSTRM_ES_SIDER_DIESEL_10
 E  STRM_ES_SIDER_VGO_10
 E  TSTRM_ES_SIDER_VGO_10
 E  STRM_ES_SIDER_RESIDUE_10
 E  TSTRM_ES_SIDER_RESIDUE_10
 E  FSTRM_ES_SIDER_NAPHTHA_10
 E  FSTRM_ES_SIDER_DIESEL_10
 E  CBAL_QUA_IBOE_10
 E  STRM_QUA_IBOE_NAPHTHA_10
 E  TSTRM_QUA_IBOE_NAPHTHA_10
 E  STRM_QUA_IBOE_KERO_10
 E  TSTRM_QUA_IBOE_KERO_10
 E  STRM_QUA_IBOE_DIESEL_10
 E  TSTRM_QUA_IBOE_DIESEL_10
 E  STRM_QUA_IBOE_VGO_10
 E  TSTRM_QUA_IBOE_VGO_10
 E  STRM_QUA_IBOE_RESIDUE_10
 E  TSTRM_QUA_IBOE_RESIDUE_10
 E  FSTRM_QUA_IBOE_NAPHTHA_10
 E  FSTRM_QUA_IBOE_DIESEL_10
 L  FCCCAP_10
 L  HDTCAP_10
 E  PBAL_GASOLINE_10
 L  QUAL_GASOLINE_10
 E  PBAL_JET_10
 L  QUAL_JET_10
 E  PBAL_DIESEL_P_10
 L  QUAL_DIESEL_P_10
 E  PBAL_FUELOIL_10
 L  QUAL_FUELOIL_10
 L  CDUCAP_11
 E  CBAL_BOMBAY_HIGH_11
 E  STRM_BOMBAY_HIGH_NAPHTHA_11
 E  TSTRM_BOMBAY_HIGH_NAPHTHA_11
 E  STRM_BOMBAY_HIGH_KERO_11
 E  TSTRM_BOMBAY_HIGH_KERO_11
 E  STRM_BOMBAY_HIGH_DIESEL_11
 E  TSTRM_BOMBAY_HIGH_DIESEL_11
 E  STRM_BOMBAY_HIGH_VGO_11
 E  TSTRM_BOMBAY_HIGH_VGO_11
 E  STRM_BOMBAY_HIGH_RESIDUE_11
 E  TSTRM_BOMBAY_HIGH_RESIDUE_11
 E  FSTRM_BOMBAY_HIGH_NAPHTHA_11
 E  FSTRM_BOMBAY_HIGH_DIESEL_11
 E  CBAL_ARAB_LIGHT_11
 E  STRM_ARAB_LIGHT_NAPHTHA_11
 E  TSTRM_ARAB_LIGHT_NAPHTHA_11
 E  STRM_ARAB_LIGHT_KERO_11
 E  TSTRM_ARAB_LIGHT_KERO_11
 E  STRM_ARAB_LIGHT_DIESEL_11
 E  TSTRM_ARAB_LIGHT_DIESEL_11
 E  STRM_ARAB_LIGHT_VGO_11
 E  TSTRM_ARAB_LIGHT_VGO_11
 E  STRM_ARAB_LIGHT_RESIDUE_11
 E  TSTRM_ARAB_LIGHT_RESIDUE_11
 E  FSTRM_ARAB_LIGHT_NAPHTHA_11
 E  FSTRM_ARAB_LIGHT_DIESEL_11
 E  CBAL_ARAB_HEAVY_11
 E  STRM_ARAB_HEAVY_NAPHTHA_11
 E  TSTRM_ARAB_HEAVY_NAPHTHA_11
 E  STRM_ARAB_HEAVY_KERO_11
 E  TSTRM_ARAB_HEAVY_KERO_11
 E  STRM_ARAB_HEAVY_DIESEL_11
 E  TSTRM_ARAB_HEAVY_DIESEL_11
 E  STRM_ARAB_HEAVY_VGO_11
 E  TSTRM_ARAB_HEAVY_VGO_11
 E  STRM_ARAB_HEAVY_RESIDUE_11
 E  TSTRM_ARAB_HEAVY_RESIDUE_11
 E  FSTRM_ARAB_HEAVY_NAPHTHA_11
 E  FSTRM_ARAB_HEAVY_DIESEL_11
 E  CBAL_BASRAH_11
 E  STRM_BASRAH_NAPHTHA_11
 E  TSTRM_BASRAH_NAPHTHA_11
 E  STRM_BASRAH_KERO_11
 E  TSTRM_BASRAH_KERO_11
 E  STRM_BASRAH_DIESEL_11
 E  TSTRM_BASRAH_DIESEL_11
 E  STRM_BASRAH_VGO_11
 E  TSTRM_BASRAH_VGO_11
 E  STRM_BASRAH_RESIDUE_11
 E  TSTRM_BASRAH_RESIDUE_11
 E  FSTRM_BASRAH_NAPHTHA_11
 E  FSTRM_BASRAH_DIESEL_11
 E  CBAL_URALS_11
 E  STRM_URALS_NAPHTHA_11
 E  TSTRM_URALS_NAPHTHA_11
 E  STRM_URALS_KERO_11
 E  TSTRM_URALS_KERO_11
 E  STRM_URALS_DIESEL_11
 E  TSTRM_URALS_DIESEL_11
 E  STRM_URALS_VGO_11
 E  TSTRM_URALS_VGO_11
 E  STRM_URALS_RESIDUE_11
 E  TSTRM_URALS_RESIDUE_11
 E  FSTRM_URALS_NAPHTHA_11
 E  FSTRM_URALS_DIESEL_11
 E  CBAL_MURBAN_11
 E  STRM_MURBAN_NAPHTHA_11
 E  TSTRM_MURBAN_NAPHTHA_11
 E  STRM_MURBAN_KERO_11
 E  TSTRM_MURBAN_KERO_11
 E  STRM_MURBAN_DIESEL_11
 E  TSTRM_MURBAN_DIESEL_11
 E  STRM_MURBAN_VGO_11
 E  TSTRM_MURBAN_VGO_11
 E  STRM_MURBAN_RESIDUE_11
 E  TSTRM_MURBAN_RESIDUE_11
 E  FSTRM_MURBAN_NAPHTHA_11
 E  FSTRM_MURBAN_DIESEL_11
 E  CBAL_ES_SIDER_11
 E  STRM_ES_SIDER_NAPHTHA_11
 E  TSTRM_ES_SIDER_NAPHTHA_11
 E  STRM_ES_SIDER_KERO_11
 E  TSTRM_ES_SIDER_KERO_11
 E  STRM_ES_SIDER_DIESEL_11
 E  TSTRM_ES_SIDER_DIESEL_11
 E  STRM_ES_SIDER_VGO_11
 E  TSTRM_ES_SIDER_VGO_11
 E  STRM_ES_SIDER_RESIDUE_11
 E  TSTRM_ES_SIDER_RESIDUE_11
 E  FSTRM_ES_SIDER_NAPHTHA_11
 E  FSTRM_ES_SIDER_DIESEL_11
 E  CBAL_QUA_IBOE_11
 E  STRM_QUA_IBOE_NAPHTHA_11
 E  TSTRM_QUA_IBOE_NAPHTHA_11
 E  STRM_QUA_IBOE_KERO_11
 E  TSTRM_QUA_IBOE_KERO_11
 E  STRM_QUA_IBOE_DIESEL_11
 E  TSTRM_QUA_IBOE_DIESEL_11
 E  STRM_QUA_IBOE_VGO_11
 E  TSTRM_QUA_IBOE_VGO_11
 E  STRM_QUA_IBOE_RESIDUE_11
 E  TSTRM_QUA_IBOE_RESIDUE_11
 E  FSTRM_QUA_IBOE_NAPHTHA_11
 E  FSTRM_QUA_IBOE_DIESEL_11
 L  FCCCAP_11
 L  HDTCAP_11
 E  PBAL_GASOLINE_11
 L  QUAL_GASOLINE_11
 E  PBAL_JET_11
 L  QUAL_JET_11
 E  PBAL_DIESEL_P_11
 L  QUAL_DIESEL_P_11
 E  PBAL_FUELOIL_11
 L  QUAL_FUELOIL_11
 L  CDUCAP_12
 E  CBAL_BOMBAY_HIGH_12
 E  STRM_BOMBAY_HIGH_NAPHTHA_12
 E  TSTRM_BOMBAY_HIGH_NAPHTHA_12
 E  STRM_BOMBAY_HIGH_KERO_12
 E  TSTRM_BOMBAY_HIGH_KERO_12
 E  STRM_BOMBAY_HIGH_DIESEL_12
 E  TSTRM_BOMBAY_HIGH_DIESEL_12
 E  STRM_BOMBAY_HIGH_VGO_12
 E  TSTRM_BOMBAY_HIGH_VGO_12
 E  STRM_BOMBAY_HIGH_RESIDUE_12
 E  TSTRM_BOMBAY_HIGH_RESIDUE_12
 E  FSTRM_BOMBAY_HIGH_NAPHTHA_12
 E  FSTRM_BOMBAY_HIGH_DIESEL_12
 E  CBAL_ARAB_LIGHT_12
 E  STRM_ARAB_LIGHT_NAPHTHA_12
 E  TSTRM_ARAB_LIGHT_NAPHTHA_12
 E  STRM_ARAB_LIGHT_KERO_12
 E  TSTRM_ARAB_LIGHT_KERO_12
 E  STRM_ARAB_LIGHT_DIESEL_12
 E  TSTRM_ARAB_LIGHT_DIESEL_12
 E  STRM_ARAB_LIGHT_VGO_12
 E  TSTRM_ARAB_LIGHT_VGO_12
 E  STRM_ARAB_LIGHT_RESIDUE_12
 E  TSTRM_ARAB_LIGHT_RESIDUE_12
 E  FSTRM_ARAB_LIGHT_NAPHTHA_12
 E  FSTRM_ARAB_LIGHT_DIESEL_12
 E  CBAL_ARAB_HEAVY_12
 E  STRM_ARAB_HEAVY_NAPHTHA_12
 E  TSTRM_ARAB_HEAVY_NAPHTHA_12
 E  STRM_ARAB_HEAVY_KERO_12
 E  TSTRM_ARAB_HEAVY_KERO_12
 E  STRM_ARAB_HEAVY_DIESEL_12
 E  TSTRM_ARAB_HEAVY_DIESEL_12
 E  STRM_ARAB_HEAVY_VGO_12
 E  TSTRM_ARAB_HEAVY_VGO_12
 E  STRM_ARAB_HEAVY_RESIDUE_12
 E  TSTRM_ARAB_HEAVY_RESIDUE_12
 E  FSTRM_ARAB_HEAVY_NAPHTHA_12
 E  FSTRM_ARAB_HEAVY_DIESEL_12
 E  CBAL_BASRAH_12
 E  STRM_BASRAH_NAPHTHA_12
 E  TSTRM_BASRAH_NAPHTHA_12
 E  STRM_BASRAH_KERO_12
 E  TSTRM_BASRAH_KERO_12
 E  STRM_BASRAH_DIESEL_12
 E  TSTRM_BASRAH_DIESEL_12
 E  STRM_BASRAH_VGO_12
 E  TSTRM_BASRAH_VGO_12
 E  STRM_BASRAH_RESIDUE_12
 E  TSTRM_BASRAH_RESIDUE_12
 E  FSTRM_BASRAH_NAPHTHA_12
 E  FSTRM_BASRAH_DIESEL_12
 E  CBAL_URALS_12
 E  STRM_URALS_NAPHTHA_12
 E  TSTRM_URALS_NAPHTHA_12
 E  STRM_URALS_KERO_12
 E  TSTRM_URALS_KERO_12
 E  STRM_URALS_DIESEL_12
 E  TSTRM_URALS_DIESEL_12
 E  STRM_URALS_VGO_12
 E  TSTRM_URALS_VGO_12
 E  STRM_URALS_RESIDUE_12
 E  TSTRM_URALS_RESIDUE_12
 E  FSTRM_URALS_NAPHTHA_12
 E  FSTRM_URALS_DIESEL_12
 E  CBAL_MURBAN_12
 E  STRM_MURBAN_NAPHTHA_12
 E  TSTRM_MURBAN_NAPHTHA_12
 E  STRM_MURBAN_KERO_12
 E  TSTRM_MURBAN_KERO_12
 E  STRM_MURBAN_DIESEL_12
 E  TSTRM_MURBAN_DIESEL_12
 E  STRM_MURBAN_VGO_12
 E  TSTRM_MURBAN_VGO_12
 E  STRM_MURBAN_RESIDUE_12
 E  TSTRM_MURBAN_RESIDUE_12
 E  FSTRM_MURBAN_NAPHTHA_12
 E  FSTRM_MURBAN_DIESEL_12
 E  CBAL_ES_SIDER_12
 E  STRM_ES_SIDER_NAPHTHA_12
 E  TSTRM_ES_SIDER_NAPHTHA_12
 E  STRM_ES_SIDER_KERO_12
 E  TSTRM_ES_SIDER_KERO_12
 E  STRM_ES_SIDER_DIESEL_12
 E  TSTRM_ES_SIDER_DIESEL_12
 E  STRM_ES_SIDER_VGO_12
 E  TSTRM_ES_SIDER_VGO_12
 E  STRM_ES_SIDER_RESIDUE_12
 E  TSTRM_ES_SIDER_RESIDUE_12
 E  FSTRM_ES_SIDER_NAPHTHA_12
 E  FSTRM_ES_SIDER_DIESEL_12
 E  CBAL_QUA_IBOE_12
 E  STRM_QUA_IBOE_NAPHTHA_12
 E  TSTRM_QUA_IBOE_NAPHTHA_12
 E  STRM_QUA_IBOE_KERO_12
 E  TSTRM_QUA_IBOE_KERO_12
 E  STRM_QUA_IBOE_DIESEL_12
 E  TSTRM_QUA_IBOE_DIESEL_12
 E  STRM_QUA_IBOE_VGO_12
 E  TSTRM_QUA_IBOE_VGO_12
 E  STRM_QUA_IBOE_RESIDUE_12
 E  TSTRM_QUA_IBOE_RESIDUE_12
 E  FSTRM_QUA_IBOE_NAPHTHA_12
 E  FSTRM_QUA_IBOE_DIESEL_12
 L  FCCCAP_12
 L  HDTCAP_12
 E  PBAL_GASOLINE_12
 L  QUAL_GASOLINE_12
 E  PBAL_JET_12
 L  QUAL_JET_12
 E  PBAL_DIESEL_P_12
 L  QUAL_DIESEL_P_12
 E  PBAL_FUELOIL_12
 L  QUAL_FUELOIL_12
COLUMNS
    BUY_BOMBAY_HIGH_1         COST                     -6850  CBAL_BOMBAY_HIGH_1       1
    INVC_BOMBAY_HIGH_1        COST                     -82.2  CBAL_BOMBAY_HIGH_1       -1
    INVC_BOMBAY_HIGH_1        CBAL_BOMBAY_HIGH_2       1
    CHG_BOMBAY_HIGH_1         COST                     -145  CBAL_BOMBAY_HIGH_1       -1
    CHG_BOMBAY_HIGH_1         CDUCAP_1                 1  STRM_BOMBAY_HIGH_NAPHTHA_1 0.26
    CHG_BOMBAY_HIGH_1         STRM_BOMBAY_HIGH_KERO_1  0.18  STRM_BOMBAY_HIGH_DIESEL_1 0.24
    CHG_BOMBAY_HIGH_1         STRM_BOMBAY_HIGH_VGO_1   0.2  STRM_BOMBAY_HIGH_RESIDUE_1 0.12
    SLACK_BOMBAY_HIGH_NAPHTHA_1  COST                     -180  STRM_BOMBAY_HIGH_NAPHTHA_1 -1
    HDT_BOMBAY_HIGH_NAPHTHA_1  COST                     -240  STRM_BOMBAY_HIGH_NAPHTHA_1 -1
    HDT_BOMBAY_HIGH_NAPHTHA_1  TSTRM_BOMBAY_HIGH_NAPHTHA_1 1  HDTCAP_1                 1
    BL_BOMBAY_HIGH_NAPHTHA_GASOLINE_1  STRM_BOMBAY_HIGH_NAPHTHA_1 -1  PBAL_GASOLINE_1          1
    BL_BOMBAY_HIGH_NAPHTHA_GASOLINE_1  QUAL_GASOLINE_1          -32
    BL_BOMBAY_HIGH_NAPHTHA_JET_1  STRM_BOMBAY_HIGH_NAPHTHA_1 -1  PBAL_JET_1               1
    BL_BOMBAY_HIGH_NAPHTHA_JET_1  QUAL_JET_1               -2482
    TSLACK_BOMBAY_HIGH_NAPHTHA_1  COST                     -180  TSTRM_BOMBAY_HIGH_NAPHTHA_1 -1
    TBL_BOMBAY_HIGH_NAPHTHA_GASOLINE_1  TSTRM_BOMBAY_HIGH_NAPHTHA_1 -1  PBAL_GASOLINE_1          1
    TBL_BOMBAY_HIGH_NAPHTHA_GASOLINE_1  QUAL_GASOLINE_1          -49.28
    TBL_BOMBAY_HIGH_NAPHTHA_JET_1  TSTRM_BOMBAY_HIGH_NAPHTHA_1 -1  PBAL_JET_1               1
    TBL_BOMBAY_HIGH_NAPHTHA_JET_1  QUAL_JET_1               -2499.28
    SLACK_BOMBAY_HIGH_KERO_1  COST                     -180  STRM_BOMBAY_HIGH_KERO_1  -1
    HDT_BOMBAY_HIGH_KERO_1    COST                     -240  STRM_BOMBAY_HIGH_KERO_1  -1
    HDT_BOMBAY_HIGH_KERO_1    TSTRM_BOMBAY_HIGH_KERO_1 1  HDTCAP_1                 1
    BL_BOMBAY_HIGH_KERO_GASOLINE_1  STRM_BOMBAY_HIGH_KERO_1  -1  PBAL_GASOLINE_1          1
    BL_BOMBAY_HIGH_KERO_GASOLINE_1  QUAL_GASOLINE_1          85
    BL_BOMBAY_HIGH_KERO_JET_1  STRM_BOMBAY_HIGH_KERO_1  -1  PBAL_JET_1               1
    BL_BOMBAY_HIGH_KERO_JET_1  QUAL_JET_1               -2365
    BL_BOMBAY_HIGH_KERO_DIESEL_P_1  STRM_BOMBAY_HIGH_KERO_1  -1  PBAL_DIESEL_P_1          1
    BL_BOMBAY_HIGH_KERO_DIESEL_P_1  QUAL_DIESEL_P_1          -215
    TSLACK_BOMBAY_HIGH_KERO_1  COST                     -180  TSTRM_BOMBAY_HIGH_KERO_1 -1
    TBL_BOMBAY_HIGH_KERO_GASOLINE_1  TSTRM_BOMBAY_HIGH_KERO_1 -1  PBAL_GASOLINE_1          1
    TBL_BOMBAY_HIGH_KERO_GASOLINE_1  QUAL_GASOLINE_1          -44.6
    TBL_BOMBAY_HIGH_KERO_JET_1  TSTRM_BOMBAY_HIGH_KERO_1 -1  PBAL_JET_1               1
    TBL_BOMBAY_HIGH_KERO_JET_1  QUAL_JET_1               -2494.6
    TBL_BOMBAY_HIGH_KERO_DIESEL_P_1  TSTRM_BOMBAY_HIGH_KERO_1 -1  PBAL_DIESEL_P_1          1
    TBL_BOMBAY_HIGH_KERO_DIESEL_P_1  QUAL_DIESEL_P_1          -344.6
    SLACK_BOMBAY_HIGH_DIESEL_1  COST                     -180  STRM_BOMBAY_HIGH_DIESEL_1 -1
    HDT_BOMBAY_HIGH_DIESEL_1  COST                     -240  STRM_BOMBAY_HIGH_DIESEL_1 -1
    HDT_BOMBAY_HIGH_DIESEL_1  TSTRM_BOMBAY_HIGH_DIESEL_1 1  HDTCAP_1                 1
    BL_BOMBAY_HIGH_DIESEL_DIESEL_P_1  STRM_BOMBAY_HIGH_DIESEL_1 -1  PBAL_DIESEL_P_1          1
    BL_BOMBAY_HIGH_DIESEL_DIESEL_P_1  QUAL_DIESEL_P_1          145
    BL_BOMBAY_HIGH_DIESEL_FUELOIL_1  STRM_BOMBAY_HIGH_DIESEL_1 -1  PBAL_FUELOIL_1           1
    BL_BOMBAY_HIGH_DIESEL_FUELOIL_1  QUAL_FUELOIL_1           -34505
    TSLACK_BOMBAY_HIGH_DIESEL_1  COST                     -180  TSTRM_BOMBAY_HIGH_DIESEL_1 -1
    TBL_BOMBAY_HIGH_DIESEL_DIESEL_P_1  TSTRM_BOMBAY_HIGH_DIESEL_1 -1  PBAL_DIESEL_P_1          1
    TBL_BOMBAY_HIGH_DIESEL_DIESEL_P_1  QUAL_DIESEL_P_1          -330.2
    TBL_BOMBAY_HIGH_DIESEL_FUELOIL_1  TSTRM_BOMBAY_HIGH_DIESEL_1 -1  PBAL_FUELOIL_1           1
    TBL_BOMBAY_HIGH_DIESEL_FUELOIL_1  QUAL_FUELOIL_1           -34980.2
    SLACK_BOMBAY_HIGH_VGO_1   COST                     -180  STRM_BOMBAY_HIGH_VGO_1   -1
    HDT_BOMBAY_HIGH_VGO_1     COST                     -240  STRM_BOMBAY_HIGH_VGO_1   -1
    HDT_BOMBAY_HIGH_VGO_1     TSTRM_BOMBAY_HIGH_VGO_1  1  HDTCAP_1                 1
    FCC_BOMBAY_HIGH_1         COST                     -310  STRM_BOMBAY_HIGH_VGO_1   -1
    FCC_BOMBAY_HIGH_1         FSTRM_BOMBAY_HIGH_NAPHTHA_1 0.55  FSTRM_BOMBAY_HIGH_DIESEL_1 0.25
    FCC_BOMBAY_HIGH_1         FCCCAP_1                 1
    BL_BOMBAY_HIGH_VGO_DIESEL_P_1  STRM_BOMBAY_HIGH_VGO_1   -1  PBAL_DIESEL_P_1          1
    BL_BOMBAY_HIGH_VGO_DIESEL_P_1  QUAL_DIESEL_P_1          865
    BL_BOMBAY_HIGH_VGO_FUELOIL_1  STRM_BOMBAY_HIGH_VGO_1   -1  PBAL_FUELOIL_1           1
    BL_BOMBAY_HIGH_VGO_FUELOIL_1  QUAL_FUELOIL_1           -33785
    TSLACK_BOMBAY_HIGH_VGO_1  COST                     -180  TSTRM_BOMBAY_HIGH_VGO_1  -1
    TBL_BOMBAY_HIGH_VGO_DIESEL_P_1  TSTRM_BOMBAY_HIGH_VGO_1  -1  PBAL_DIESEL_P_1          1
    TBL_BOMBAY_HIGH_VGO_DIESEL_P_1  QUAL_DIESEL_P_1          -301.4
    TBL_BOMBAY_HIGH_VGO_FUELOIL_1  TSTRM_BOMBAY_HIGH_VGO_1  -1  PBAL_FUELOIL_1           1
    TBL_BOMBAY_HIGH_VGO_FUELOIL_1  QUAL_FUELOIL_1           -34951.4
    SLACK_BOMBAY_HIGH_RESIDUE_1  COST                     -180  STRM_BOMBAY_HIGH_RESIDUE_1 -1
    HDT_BOMBAY_HIGH_RESIDUE_1  COST                     -240  STRM_BOMBAY_HIGH_RESIDUE_1 -1
    HDT_BOMBAY_HIGH_RESIDUE_1  TSTRM_BOMBAY_HIGH_RESIDUE_1 1  HDTCAP_1                 1
    BL_BOMBAY_HIGH_RESIDUE_FUELOIL_1  STRM_BOMBAY_HIGH_RESIDUE_1 -1  PBAL_FUELOIL_1           1
    BL_BOMBAY_HIGH_RESIDUE_FUELOIL_1  QUAL_FUELOIL_1           -32660
    TSLACK_BOMBAY_HIGH_RESIDUE_1  COST                     -180  TSTRM_BOMBAY_HIGH_RESIDUE_1 -1
    TBL_BOMBAY_HIGH_RESIDUE_FUELOIL_1  TSTRM_BOMBAY_HIGH_RESIDUE_1 -1  PBAL_FUELOIL_1           1
    TBL_BOMBAY_HIGH_RESIDUE_FUELOIL_1  QUAL_FUELOIL_1           -34906.4
    FSLACK_BOMBAY_HIGH_NAPHTHA_1  COST                     -180  FSTRM_BOMBAY_HIGH_NAPHTHA_1 -1
    FBL_BOMBAY_HIGH_NAPHTHA_GASOLINE_1  FSTRM_BOMBAY_HIGH_NAPHTHA_1 -1  PBAL_GASOLINE_1          1
    FBL_BOMBAY_HIGH_NAPHTHA_GASOLINE_1  QUAL_GASOLINE_1          -43.7
    FBL_BOMBAY_HIGH_NAPHTHA_JET_1  FSTRM_BOMBAY_HIGH_NAPHTHA_1 -1  PBAL_JET_1               1
    FBL_BOMBAY_HIGH_NAPHTHA_JET_1  QUAL_JET_1               -2493.7
    FSLACK_BOMBAY_HIGH_DIESEL_1  COST                     -180  FSTRM_BOMBAY_HIGH_DIESEL_1 -1
    FBL_BOMBAY_HIGH_DIESEL_DIESEL_P_1  FSTRM_BOMBAY_HIGH_DIESEL_1 -1  PBAL_DIESEL_P_1          1
    FBL_BOMBAY_HIGH_DIESEL_DIESEL_P_1  QUAL_DIESEL_P_1          -176.75
    FBL_BOMBAY_HIGH_DIESEL_FUELOIL_1  FSTRM_BOMBAY_HIGH_DIESEL_1 -1  PBAL_FUELOIL_1           1
    FBL_BOMBAY_HIGH_DIESEL_FUELOIL_1  QUAL_FUELOIL_1           -34826.75
    BUY_ARAB_LIGHT_1          COST                     -6420  CBAL_ARAB_LIGHT_1        1
    INVC_ARAB_LIGHT_1         COST                     -77.04  CBAL_ARAB_LIGHT_1        -1
    INVC_ARAB_LIGHT_1         CBAL_ARAB_LIGHT_2        1
    CHG_ARAB_LIGHT_1          COST                     -145  CBAL_ARAB_LIGHT_1        -1
    CHG_ARAB_LIGHT_1          CDUCAP_1                 1  STRM_ARAB_LIGHT_NAPHTHA_1 0.22
    CHG_ARAB_LIGHT_1          STRM_ARAB_LIGHT_KERO_1   0.17  STRM_ARAB_LIGHT_DIESEL_1 0.23
    CHG_ARAB_LIGHT_1          STRM_ARAB_LIGHT_VGO_1    0.22  STRM_ARAB_LIGHT_RESIDUE_1 0.16
    SLACK_ARAB_LIGHT_NAPHTHA_1  COST                     -180  STRM_ARAB_LIGHT_NAPHTHA_1 -1
    HDT_ARAB_LIGHT_NAPHTHA_1  COST                     -240  STRM_ARAB_LIGHT_NAPHTHA_1 -1
    HDT_ARAB_LIGHT_NAPHTHA_1  TSTRM_ARAB_LIGHT_NAPHTHA_1 1  HDTCAP_1                 1
    BL_ARAB_LIGHT_NAPHTHA_GASOLINE_1  STRM_ARAB_LIGHT_NAPHTHA_1 -1  PBAL_GASOLINE_1          1
    BL_ARAB_LIGHT_NAPHTHA_GASOLINE_1  QUAL_GASOLINE_1          330
    BL_ARAB_LIGHT_NAPHTHA_JET_1  STRM_ARAB_LIGHT_NAPHTHA_1 -1  PBAL_JET_1               1
    BL_ARAB_LIGHT_NAPHTHA_JET_1  QUAL_JET_1               -2120
    TSLACK_ARAB_LIGHT_NAPHTHA_1  COST                     -180  TSTRM_ARAB_LIGHT_NAPHTHA_1 -1
    TBL_ARAB_LIGHT_NAPHTHA_GASOLINE_1  TSTRM_ARAB_LIGHT_NAPHTHA_1 -1  PBAL_GASOLINE_1          1
    TBL_ARAB_LIGHT_NAPHTHA_GASOLINE_1  QUAL_GASOLINE_1          -34.8
    TBL_ARAB_LIGHT_NAPHTHA_JET_1  TSTRM_ARAB_LIGHT_NAPHTHA_1 -1  PBAL_JET_1               1
    TBL_ARAB_LIGHT_NAPHTHA_JET_1  QUAL_JET_1               -2484.8
    SLACK_ARAB_LIGHT_KERO_1   COST                     -180  STRM_ARAB_LIGHT_KERO_1   -1
    HDT_ARAB_LIGHT_KERO_1     COST                     -240  STRM_ARAB_LIGHT_KERO_1   -1
    HDT_ARAB_LIGHT_KERO_1     TSTRM_ARAB_LIGHT_KERO_1  1  HDTCAP_1                 1
    BL_ARAB_LIGHT_KERO_GASOLINE_1  STRM_ARAB_LIGHT_KERO_1   -1  PBAL_GASOLINE_1          1
    BL_ARAB_LIGHT_KERO_GASOLINE_1  QUAL_GASOLINE_1          2800
    BL_ARAB_LIGHT_KERO_JET_1  STRM_ARAB_LIGHT_KERO_1   -1  PBAL_JET_1               1
    BL_ARAB_LIGHT_KERO_JET_1  QUAL_JET_1               350
    BL_ARAB_LIGHT_KERO_DIESEL_P_1  STRM_ARAB_LIGHT_KERO_1   -1  PBAL_DIESEL_P_1          1
    BL_ARAB_LIGHT_KERO_DIESEL_P_1  QUAL_DIESEL_P_1          2500
    TSLACK_ARAB_LIGHT_KERO_1  COST                     -180  TSTRM_ARAB_LIGHT_KERO_1  -1
    TBL_ARAB_LIGHT_KERO_GASOLINE_1  TSTRM_ARAB_LIGHT_KERO_1  -1  PBAL_GASOLINE_1          1
    TBL_ARAB_LIGHT_KERO_GASOLINE_1  QUAL_GASOLINE_1          64
    TBL_ARAB_LIGHT_KERO_JET_1  TSTRM_ARAB_LIGHT_KERO_1  -1  PBAL_JET_1               1
    TBL_ARAB_LIGHT_KERO_JET_1  QUAL_JET_1               -2386
    TBL_ARAB_LIGHT_KERO_DIESEL_P_1  TSTRM_ARAB_LIGHT_KERO_1  -1  PBAL_DIESEL_P_1          1
    TBL_ARAB_LIGHT_KERO_DIESEL_P_1  QUAL_DIESEL_P_1          -236
    SLACK_ARAB_LIGHT_DIESEL_1  COST                     -180  STRM_ARAB_LIGHT_DIESEL_1 -1
    HDT_ARAB_LIGHT_DIESEL_1   COST                     -240  STRM_ARAB_LIGHT_DIESEL_1 -1
    HDT_ARAB_LIGHT_DIESEL_1   TSTRM_ARAB_LIGHT_DIESEL_1 1  HDTCAP_1                 1
    BL_ARAB_LIGHT_DIESEL_DIESEL_P_1  STRM_ARAB_LIGHT_DIESEL_1 -1  PBAL_DIESEL_P_1          1
    BL_ARAB_LIGHT_DIESEL_DIESEL_P_1  QUAL_DIESEL_P_1          10100
    BL_ARAB_LIGHT_DIESEL_FUELOIL_1  STRM_ARAB_LIGHT_DIESEL_1 -1  PBAL_FUELOIL_1           1
    BL_ARAB_LIGHT_DIESEL_FUELOIL_1  QUAL_FUELOIL_1           -24550
    TSLACK_ARAB_LIGHT_DIESEL_1  COST                     -180  TSTRM_ARAB_LIGHT_DIESEL_1 -1
    TBL_ARAB_LIGHT_DIESEL_DIESEL_P_1  TSTRM_ARAB_LIGHT_DIESEL_1 -1  PBAL_DIESEL_P_1          1
    TBL_ARAB_LIGHT_DIESEL_DIESEL_P_1  QUAL_DIESEL_P_1          68
    TBL_ARAB_LIGHT_DIESEL_FUELOIL_1  TSTRM_ARAB_LIGHT_DIESEL_1 -1  PBAL_FUELOIL_1           1
    TBL_ARAB_LIGHT_DIESEL_FUELOIL_1  QUAL_FUELOIL_1           -34582
    SLACK_ARAB_LIGHT_VGO_1    COST                     -180  STRM_ARAB_LIGHT_VGO_1    -1
    HDT_ARAB_LIGHT_VGO_1      COST                     -240  STRM_ARAB_LIGHT_VGO_1    -1
    HDT_ARAB_LIGHT_VGO_1      TSTRM_ARAB_LIGHT_VGO_1   1  HDTCAP_1                 1
    FCC_ARAB_LIGHT_1          COST                     -310  STRM_ARAB_LIGHT_VGO_1    -1
    FCC_ARAB_LIGHT_1          FSTRM_ARAB_LIGHT_NAPHTHA_1 0.55  FSTRM_ARAB_LIGHT_DIESEL_1 0.25
    FCC_ARAB_LIGHT_1          FCCCAP_1                 1
    BL_ARAB_LIGHT_VGO_DIESEL_P_1  STRM_ARAB_LIGHT_VGO_1    -1  PBAL_DIESEL_P_1          1
    BL_ARAB_LIGHT_VGO_DIESEL_P_1  QUAL_DIESEL_P_1          25300
    BL_ARAB_LIGHT_VGO_FUELOIL_1  STRM_ARAB_LIGHT_VGO_1    -1  PBAL_FUELOIL_1           1
    BL_ARAB_LIGHT_VGO_FUELOIL_1  QUAL_FUELOIL_1           -9350
    TSLACK_ARAB_LIGHT_VGO_1   COST                     -180  TSTRM_ARAB_LIGHT_VGO_1   -1
    TBL_ARAB_LIGHT_VGO_DIESEL_P_1  TSTRM_ARAB_LIGHT_VGO_1   -1  PBAL_DIESEL_P_1          1
    TBL_ARAB_LIGHT_VGO_DIESEL_P_1  QUAL_DIESEL_P_1          676
    TBL_ARAB_LIGHT_VGO_FUELOIL_1  TSTRM_ARAB_LIGHT_VGO_1   -1  PBAL_FUELOIL_1           1
    TBL_ARAB_LIGHT_VGO_FUELOIL_1  QUAL_FUELOIL_1           -33974
    SLACK_ARAB_LIGHT_RESIDUE_1  COST                     -180  STRM_ARAB_LIGHT_RESIDUE_1 -1
    HDT_ARAB_LIGHT_RESIDUE_1  COST                     -240  STRM_ARAB_LIGHT_RESIDUE_1 -1
    HDT_ARAB_LIGHT_RESIDUE_1  TSTRM_ARAB_LIGHT_RESIDUE_1 1  HDTCAP_1                 1
    BL_ARAB_LIGHT_RESIDUE_FUELOIL_1  STRM_ARAB_LIGHT_RESIDUE_1 -1  PBAL_FUELOIL_1           1
    BL_ARAB_LIGHT_RESIDUE_FUELOIL_1  QUAL_FUELOIL_1           14400
    TSLACK_ARAB_LIGHT_RESIDUE_1  COST                     -180  TSTRM_ARAB_LIGHT_RESIDUE_1 -1
    TBL_ARAB_LIGHT_RESIDUE_FUELOIL_1  TSTRM_ARAB_LIGHT_RESIDUE_1 -1  PBAL_FUELOIL_1           1
    TBL_ARAB_LIGHT_RESIDUE_FUELOIL_1  QUAL_FUELOIL_1           -33024
    FSLACK_ARAB_LIGHT_NAPHTHA_1  COST                     -180  FSTRM_ARAB_LIGHT_NAPHTHA_1 -1
    FBL_ARAB_LIGHT_NAPHTHA_GASOLINE_1  FSTRM_ARAB_LIGHT_NAPHTHA_1 -1  PBAL_GASOLINE_1          1
    FBL_ARAB_LIGHT_NAPHTHA_GASOLINE_1  QUAL_GASOLINE_1          83
    FBL_ARAB_LIGHT_NAPHTHA_JET_1  FSTRM_ARAB_LIGHT_NAPHTHA_1 -1  PBAL_JET_1               1
    FBL_ARAB_LIGHT_NAPHTHA_JET_1  QUAL_JET_1               -2367
    FSLACK_ARAB_LIGHT_DIESEL_1  COST                     -180  FSTRM_ARAB_LIGHT_DIESEL_1 -1
    FBL_ARAB_LIGHT_DIESEL_DIESEL_P_1  FSTRM_ARAB_LIGHT_DIESEL_1 -1  PBAL_DIESEL_P_1          1
    FBL_ARAB_LIGHT_DIESEL_DIESEL_P_1  QUAL_DIESEL_P_1          3307.5
    FBL_ARAB_LIGHT_DIESEL_FUELOIL_1  FSTRM_ARAB_LIGHT_DIESEL_1 -1  PBAL_FUELOIL_1           1
    FBL_ARAB_LIGHT_DIESEL_FUELOIL_1  QUAL_FUELOIL_1           -31342.5
    BUY_ARAB_HEAVY_1          COST                     -5980  CBAL_ARAB_HEAVY_1        1
    INVC_ARAB_HEAVY_1         COST                     -71.76  CBAL_ARAB_HEAVY_1        -1
    INVC_ARAB_HEAVY_1         CBAL_ARAB_HEAVY_2        1
    CHG_ARAB_HEAVY_1          COST                     -145  CBAL_ARAB_HEAVY_1        -1
    CHG_ARAB_HEAVY_1          CDUCAP_1                 1  STRM_ARAB_HEAVY_NAPHTHA_1 0.16
    CHG_ARAB_HEAVY_1          STRM_ARAB_HEAVY_KERO_1   0.14  STRM_ARAB_HEAVY_DIESEL_1 0.21
    CHG_ARAB_HEAVY_1          STRM_ARAB_HEAVY_VGO_1    0.25  STRM_ARAB_HEAVY_RESIDUE_1 0.24
    SLACK_ARAB_HEAVY_NAPHTHA_1  COST                     -180  STRM_ARAB_HEAVY_NAPHTHA_1 -1
    HDT_ARAB_HEAVY_NAPHTHA_1  COST                     -240  STRM_ARAB_HEAVY_NAPHTHA_1 -1
    HDT_ARAB_HEAVY_NAPHTHA_1  TSTRM_ARAB_HEAVY_NAPHTHA_1 1  HDTCAP_1                 1
    BL_ARAB_HEAVY_NAPHTHA_GASOLINE_1  STRM_ARAB_HEAVY_NAPHTHA_1 -1  PBAL_GASOLINE_1          1
    BL_ARAB_HEAVY_NAPHTHA_GASOLINE_1  QUAL_GASOLINE_1          530
    BL_ARAB_HEAVY_NAPHTHA_JET_1  STRM_ARAB_HEAVY_NAPHTHA_1 -1  PBAL_JET_1               1
    BL_ARAB_HEAVY_NAPHTHA_JET_1  QUAL_JET_1               -1920
    TSLACK_ARAB_HEAVY_NAPHTHA_1  COST                     -180  TSTRM_ARAB_HEAVY_NAPHTHA_1 -1
    TBL_ARAB_HEAVY_NAPHTHA_GASOLINE_1  TSTRM_ARAB_HEAVY_NAPHTHA_1 -1  PBAL_GASOLINE_1          1
    TBL_ARAB_HEAVY_NAPHTHA_GASOLINE_1  QUAL_GASOLINE_1          -26.8
    TBL_ARAB_HEAVY_NAPHTHA_JET_1  TSTRM_ARAB_HEAVY_NAPHTHA_1 -1  PBAL_JET_1               1
    TBL_ARAB_HEAVY_NAPHTHA_JET_1  QUAL_JET_1               -2476.8
    SLACK_ARAB_HEAVY_KERO_1   COST                     -180  STRM_ARAB_HEAVY_KERO_1   -1
    HDT_ARAB_HEAVY_KERO_1     COST                     -240  STRM_ARAB_HEAVY_KERO_1   -1
    HDT_ARAB_HEAVY_KERO_1     TSTRM_ARAB_HEAVY_KERO_1  1  HDTCAP_1                 1
    BL_ARAB_HEAVY_KERO_GASOLINE_1  STRM_ARAB_HEAVY_KERO_1   -1  PBAL_GASOLINE_1          1
    BL_ARAB_HEAVY_KERO_GASOLINE_1  QUAL_GASOLINE_1          4300
    BL_ARAB_HEAVY_KERO_JET_1  STRM_ARAB_HEAVY_KERO_1   -1  PBAL_JET_1               1
    BL_ARAB_HEAVY_KERO_JET_1  QUAL_JET_1               1850
    BL_ARAB_HEAVY_KERO_DIESEL_P_1  STRM_ARAB_HEAVY_KERO_1   -1  PBAL_DIESEL_P_1          1
    BL_ARAB_HEAVY_KERO_DIESEL_P_1  QUAL_DIESEL_P_1          4000
    TSLACK_ARAB_HEAVY_KERO_1  COST                     -180  TSTRM_ARAB_HEAVY_KERO_1  -1
    TBL_ARAB_HEAVY_KERO_GASOLINE_1  TSTRM_ARAB_HEAVY_KERO_1  -1  PBAL_GASOLINE_1          1
    TBL_ARAB_HEAVY_KERO_GASOLINE_1  QUAL_GASOLINE_1          124
    TBL_ARAB_HEAVY_KERO_JET_1  TSTRM_ARAB_HEAVY_KERO_1  -1  PBAL_JET_1               1
    TBL_ARAB_HEAVY_KERO_JET_1  QUAL_JET_1               -2326
    TBL_ARAB_HEAVY_KERO_DIESEL_P_1  TSTRM_ARAB_HEAVY_KERO_1  -1  PBAL_DIESEL_P_1          1
    TBL_ARAB_HEAVY_KERO_DIESEL_P_1  QUAL_DIESEL_P_1          -176
    SLACK_ARAB_HEAVY_DIESEL_1  COST                     -180  STRM_ARAB_HEAVY_DIESEL_1 -1
    HDT_ARAB_HEAVY_DIESEL_1   COST                     -240  STRM_ARAB_HEAVY_DIESEL_1 -1
    HDT_ARAB_HEAVY_DIESEL_1   TSTRM_ARAB_HEAVY_DIESEL_1 1  HDTCAP_1                 1
    BL_ARAB_HEAVY_DIESEL_DIESEL_P_1  STRM_ARAB_HEAVY_DIESEL_1 -1  PBAL_DIESEL_P_1          1
    BL_ARAB_HEAVY_DIESEL_DIESEL_P_1  QUAL_DIESEL_P_1          15600
    BL_ARAB_HEAVY_DIESEL_FUELOIL_1  STRM_ARAB_HEAVY_DIESEL_1 -1  PBAL_FUELOIL_1           1
    BL_ARAB_HEAVY_DIESEL_FUELOIL_1  QUAL_FUELOIL_1           -19050
    TSLACK_ARAB_HEAVY_DIESEL_1  COST                     -180  TSTRM_ARAB_HEAVY_DIESEL_1 -1
    TBL_ARAB_HEAVY_DIESEL_DIESEL_P_1  TSTRM_ARAB_HEAVY_DIESEL_1 -1  PBAL_DIESEL_P_1          1
    TBL_ARAB_HEAVY_DIESEL_DIESEL_P_1  QUAL_DIESEL_P_1          288
    TBL_ARAB_HEAVY_DIESEL_FUELOIL_1  TSTRM_ARAB_HEAVY_DIESEL_1 -1  PBAL_FUELOIL_1           1
    TBL_ARAB_HEAVY_DIESEL_FUELOIL_1  QUAL_FUELOIL_1           -34362
    SLACK_ARAB_HEAVY_VGO_1    COST                     -180  STRM_ARAB_HEAVY_VGO_1    -1
    HDT_ARAB_HEAVY_VGO_1      COST                     -240  STRM_ARAB_HEAVY_VGO_1    -1
    HDT_ARAB_HEAVY_VGO_1      TSTRM_ARAB_HEAVY_VGO_1   1  HDTCAP_1                 1
    FCC_ARAB_HEAVY_1          COST                     -310  STRM_ARAB_HEAVY_VGO_1    -1
    FCC_ARAB_HEAVY_1          FSTRM_ARAB_HEAVY_NAPHTHA_1 0.55  FSTRM_ARAB_HEAVY_DIESEL_1 0.25
    FCC_ARAB_HEAVY_1          FCCCAP_1                 1
    BL_ARAB_HEAVY_VGO_DIESEL_P_1  STRM_ARAB_HEAVY_VGO_1    -1  PBAL_DIESEL_P_1          1
    BL_ARAB_HEAVY_VGO_DIESEL_P_1  QUAL_DIESEL_P_1          38800
    BL_ARAB_HEAVY_VGO_FUELOIL_1  STRM_ARAB_HEAVY_VGO_1    -1  PBAL_FUELOIL_1           1
    BL_ARAB_HEAVY_VGO_FUELOIL_1  QUAL_FUELOIL_1           4150
    TSLACK_ARAB_HEAVY_VGO_1   COST                     -180  TSTRM_ARAB_HEAVY_VGO_1   -1
    TBL_ARAB_HEAVY_VGO_DIESEL_P_1  TSTRM_ARAB_HEAVY_VGO_1   -1  PBAL_DIESEL_P_1          1
    TBL_ARAB_HEAVY_VGO_DIESEL_P_1  QUAL_DIESEL_P_1          1216
    TBL_ARAB_HEAVY_VGO_FUELOIL_1  TSTRM_ARAB_HEAVY_VGO_1   -1  PBAL_FUELOIL_1           1
    TBL_ARAB_HEAVY_VGO_FUELOIL_1  QUAL_FUELOIL_1           -33434
    SLACK_ARAB_HEAVY_RESIDUE_1  COST                     -180  STRM_ARAB_HEAVY_RESIDUE_1 -1
    HDT_ARAB_HEAVY_RESIDUE_1  COST                     -240  STRM_ARAB_HEAVY_RESIDUE_1 -1
    HDT_ARAB_HEAVY_RESIDUE_1  TSTRM_ARAB_HEAVY_RESIDUE_1 1  HDTCAP_1                 1
    BL_ARAB_HEAVY_RESIDUE_FUELOIL_1  STRM_ARAB_HEAVY_RESIDUE_1 -1  PBAL_FUELOIL_1           1
    BL_ARAB_HEAVY_RESIDUE_FUELOIL_1  QUAL_FUELOIL_1           40400
    TSLACK_ARAB_HEAVY_RESIDUE_1  COST                     -180  TSTRM_ARAB_HEAVY_RESIDUE_1 -1
    TBL_ARAB_HEAVY_RESIDUE_FUELOIL_1  TSTRM_ARAB_HEAVY_RESIDUE_1 -1  PBAL_FUELOIL_1           1
    TBL_ARAB_HEAVY_RESIDUE_FUELOIL_1  QUAL_FUELOIL_1           -31984
    FSLACK_ARAB_HEAVY_NAPHTHA_1  COST                     -180  FSTRM_ARAB_HEAVY_NAPHTHA_1 -1
    FBL_ARAB_HEAVY_NAPHTHA_GASOLINE_1  FSTRM_ARAB_HEAVY_NAPHTHA_1 -1  PBAL_GASOLINE_1          1
    FBL_ARAB_HEAVY_NAPHTHA_GASOLINE_1  QUAL_GASOLINE_1          153
    FBL_ARAB_HEAVY_NAPHTHA_JET_1  FSTRM_ARAB_HEAVY_NAPHTHA_1 -1  PBAL_JET_1               1
    FBL_ARAB_HEAVY_NAPHTHA_JET_1  QUAL_JET_1               -2297
    FSLACK_ARAB_HEAVY_DIESEL_1  COST                     -180  FSTRM_ARAB_HEAVY_DIESEL_1 -1
    FBL_ARAB_HEAVY_DIESEL_DIESEL_P_1  FSTRM_ARAB_HEAVY_DIESEL_1 -1  PBAL_DIESEL_P_1          1
    FBL_ARAB_HEAVY_DIESEL_DIESEL_P_1  QUAL_DIESEL_P_1          5232.5
    FBL_ARAB_HEAVY_DIESEL_FUELOIL_1  FSTRM_ARAB_HEAVY_DIESEL_1 -1  PBAL_FUELOIL_1           1
    FBL_ARAB_HEAVY_DIESEL_FUELOIL_1  QUAL_FUELOIL_1           -29417.5
    BUY_BASRAH_1              COST                     -6100  CBAL_BASRAH_1            1
    INVC_BASRAH_1             COST                     -73.2  CBAL_BASRAH_1            -1
    INVC_BASRAH_1             CBAL_BASRAH_2            1
    CHG_BASRAH_1              COST                     -145  CBAL_BASRAH_1            -1
    CHG_BASRAH_1              CDUCAP_1                 1  STRM_BASRAH_NAPHTHA_1    0.18
    CHG_BASRAH_1              STRM_BASRAH_KERO_1       0.15  STRM_BASRAH_DIESEL_1     0.22
    CHG_BASRAH_1              STRM_BASRAH_VGO_1        0.24  STRM_BASRAH_RESIDUE_1    0.21
    SLACK_BASRAH_NAPHTHA_1    COST                     -180  STRM_BASRAH_NAPHTHA_1    -1
    HDT_BASRAH_NAPHTHA_1      COST                     -240  STRM_BASRAH_NAPHTHA_1    -1
    HDT_BASRAH_NAPHTHA_1      TSTRM_BASRAH_NAPHTHA_1   1  HDTCAP_1                 1
    BL_BASRAH_NAPHTHA_GASOLINE_1  STRM_BASRAH_NAPHTHA_1    -1  PBAL_GASOLINE_1          1
    BL_BASRAH_NAPHTHA_GASOLINE_1  QUAL_GASOLINE_1          440
    BL_BASRAH_NAPHTHA_JET_1   STRM_BASRAH_NAPHTHA_1    -1  PBAL_JET_1               1
    BL_BASRAH_NAPHTHA_JET_1   QUAL_JET_1               -2010
    TSLACK_BASRAH_NAPHTHA_1   COST                     -180  TSTRM_BASRAH_NAPHTHA_1   -1
    TBL_BASRAH_NAPHTHA_GASOLINE_1  TSTRM_BASRAH_NAPHTHA_1   -1  PBAL_GASOLINE_1          1
    TBL_BASRAH_NAPHTHA_GASOLINE_1  QUAL_GASOLINE_1          -30.4
    TBL_BASRAH_NAPHTHA_JET_1  TSTRM_BASRAH_NAPHTHA_1   -1  PBAL_JET_1               1
    TBL_BASRAH_NAPHTHA_JET_1  QUAL_JET_1               -2480.4
    SLACK_BASRAH_KERO_1       COST                     -180  STRM_BASRAH_KERO_1       -1
    HDT_BASRAH_KERO_1         COST                     -240  STRM_BASRAH_KERO_1       -1
    HDT_BASRAH_KERO_1         TSTRM_BASRAH_KERO_1      1  HDTCAP_1                 1
    BL_BASRAH_KERO_GASOLINE_1  STRM_BASRAH_KERO_1       -1  PBAL_GASOLINE_1          1
    BL_BASRAH_KERO_GASOLINE_1  QUAL_GASOLINE_1          3625
    BL_BASRAH_KERO_JET_1      STRM_BASRAH_KERO_1       -1  PBAL_JET_1               1
    BL_BASRAH_KERO_JET_1      QUAL_JET_1               1175
    BL_BASRAH_KERO_DIESEL_P_1  STRM_BASRAH_KERO_1       -1  PBAL_DIESEL_P_1          1
    BL_BASRAH_KERO_DIESEL_P_1  QUAL_DIESEL_P_1          3325
    TSLACK_BASRAH_KERO_1      COST                     -180  TSTRM_BASRAH_KERO_1      -1
    TBL_BASRAH_KERO_GASOLINE_1  TSTRM_BASRAH_KERO_1      -1  PBAL_GASOLINE_1          1
    TBL_BASRAH_KERO_GASOLINE_1  QUAL_GASOLINE_1          97
    TBL_BASRAH_KERO_JET_1     TSTRM_BASRAH_KERO_1      -1  PBAL_JET_1               1
    TBL_BASRAH_KERO_JET_1     QUAL_JET_1               -2353
    TBL_BASRAH_KERO_DIESEL_P_1  TSTRM_BASRAH_KERO_1      -1  PBAL_DIESEL_P_1          1
    TBL_BASRAH_KERO_DIESEL_P_1  QUAL_DIESEL_P_1          -203
    SLACK_BASRAH_DIESEL_1     COST                     -180  STRM_BASRAH_DIESEL_1     -1
    HDT_BASRAH_DIESEL_1       COST                     -240  STRM_BASRAH_DIESEL_1     -1
    HDT_BASRAH_DIESEL_1       TSTRM_BASRAH_DIESEL_1    1  HDTCAP_1                 1
    BL_BASRAH_DIESEL_DIESEL_P_1  STRM_BASRAH_DIESEL_1     -1  PBAL_DIESEL_P_1          1
    BL_BASRAH_DIESEL_DIESEL_P_1  QUAL_DIESEL_P_1          13125
    BL_BASRAH_DIESEL_FUELOIL_1  STRM_BASRAH_DIESEL_1     -1  PBAL_FUELOIL_1           1
    BL_BASRAH_DIESEL_FUELOIL_1  QUAL_FUELOIL_1           -21525
    TSLACK_BASRAH_DIESEL_1    COST                     -180  TSTRM_BASRAH_DIESEL_1    -1
    TBL_BASRAH_DIESEL_DIESEL_P_1  TSTRM_BASRAH_DIESEL_1    -1  PBAL_DIESEL_P_1          1
    TBL_BASRAH_DIESEL_DIESEL_P_1  QUAL_DIESEL_P_1          189
    TBL_BASRAH_DIESEL_FUELOIL_1  TSTRM_BASRAH_DIESEL_1    -1  PBAL_FUELOIL_1           1
    TBL_BASRAH_DIESEL_FUELOIL_1  QUAL_FUELOIL_1           -34461
    SLACK_BASRAH_VGO_1        COST                     -180  STRM_BASRAH_VGO_1        -1
    HDT_BASRAH_VGO_1          COST                     -240  STRM_BASRAH_VGO_1        -1
    HDT_BASRAH_VGO_1          TSTRM_BASRAH_VGO_1       1  HDTCAP_1                 1
    FCC_BASRAH_1              COST                     -310  STRM_BASRAH_VGO_1        -1
    FCC_BASRAH_1              FSTRM_BASRAH_NAPHTHA_1   0.55  FSTRM_BASRAH_DIESEL_1    0.25
    FCC_BASRAH_1              FCCCAP_1                 1
    BL_BASRAH_VGO_DIESEL_P_1  STRM_BASRAH_VGO_1        -1  PBAL_DIESEL_P_1          1
    BL_BASRAH_VGO_DIESEL_P_1  QUAL_DIESEL_P_1          32725
    BL_BASRAH_VGO_FUELOIL_1   STRM_BASRAH_VGO_1        -1  PBAL_FUELOIL_1           1
    BL_BASRAH_VGO_FUELOIL_1   QUAL_FUELOIL_1           -1925
    TSLACK_BASRAH_VGO_1       COST                     -180  TSTRM_BASRAH_VGO_1       -1
    TBL_BASRAH_VGO_DIESEL_P_1  TSTRM_BASRAH_VGO_1       -1  PBAL_DIESEL_P_1          1
    TBL_BASRAH_VGO_DIESEL_P_1  QUAL_DIESEL_P_1          973
    TBL_BASRAH_VGO_FUELOIL_1  TSTRM_BASRAH_VGO_1       -1  PBAL_FUELOIL_1           1
    TBL_BASRAH_VGO_FUELOIL_1  QUAL_FUELOIL_1           -33677
    SLACK_BASRAH_RESIDUE_1    COST                     -180  STRM_BASRAH_RESIDUE_1    -1
    HDT_BASRAH_RESIDUE_1      COST                     -240  STRM_BASRAH_RESIDUE_1    -1
    HDT_BASRAH_RESIDUE_1      TSTRM_BASRAH_RESIDUE_1   1  HDTCAP_1                 1
    BL_BASRAH_RESIDUE_FUELOIL_1  STRM_BASRAH_RESIDUE_1    -1  PBAL_FUELOIL_1           1
    BL_BASRAH_RESIDUE_FUELOIL_1  QUAL_FUELOIL_1           28700
    TSLACK_BASRAH_RESIDUE_1   COST                     -180  TSTRM_BASRAH_RESIDUE_1   -1
    TBL_BASRAH_RESIDUE_FUELOIL_1  TSTRM_BASRAH_RESIDUE_1   -1  PBAL_FUELOIL_1           1
    TBL_BASRAH_RESIDUE_FUELOIL_1  QUAL_FUELOIL_1           -32452
    FSLACK_BASRAH_NAPHTHA_1   COST                     -180  FSTRM_BASRAH_NAPHTHA_1   -1
    FBL_BASRAH_NAPHTHA_GASOLINE_1  FSTRM_BASRAH_NAPHTHA_1   -1  PBAL_GASOLINE_1          1
    FBL_BASRAH_NAPHTHA_GASOLINE_1  QUAL_GASOLINE_1          121.5
    FBL_BASRAH_NAPHTHA_JET_1  FSTRM_BASRAH_NAPHTHA_1   -1  PBAL_JET_1               1
    FBL_BASRAH_NAPHTHA_JET_1  QUAL_JET_1               -2328.5
    FSLACK_BASRAH_DIESEL_1    COST                     -180  FSTRM_BASRAH_DIESEL_1    -1
    FBL_BASRAH_DIESEL_DIESEL_P_1  FSTRM_BASRAH_DIESEL_1    -1  PBAL_DIESEL_P_1          1
    FBL_BASRAH_DIESEL_DIESEL_P_1  QUAL_DIESEL_P_1          4366.25
    FBL_BASRAH_DIESEL_FUELOIL_1  FSTRM_BASRAH_DIESEL_1    -1  PBAL_FUELOIL_1           1
    FBL_BASRAH_DIESEL_FUELOIL_1  QUAL_FUELOIL_1           -30283.75
    BUY_URALS_1               COST                     -6260  CBAL_URALS_1             1
    INVC_URALS_1              COST                     -75.12  CBAL_URALS_1             -1
    INVC_URALS_1              CBAL_URALS_2             1
    CHG_URALS_1               COST                     -145  CBAL_URALS_1             -1
    CHG_URALS_1               CDUCAP_1                 1  STRM_URALS_NAPHTHA_1     0.2
    CHG_URALS_1               STRM_URALS_KERO_1        0.16  STRM_URALS_DIESEL_1      0.24
    CHG_URALS_1               STRM_URALS_VGO_1         0.23  STRM_URALS_RESIDUE_1     0.17
    SLACK_URALS_NAPHTHA_1     COST                     -180  STRM_URALS_NAPHTHA_1     -1
    HDT_URALS_NAPHTHA_1       COST                     -240  STRM_URALS_NAPHTHA_1     -1
    HDT_URALS_NAPHTHA_1       TSTRM_URALS_NAPHTHA_1    1  HDTCAP_1                 1
    BL_URALS_NAPHTHA_GASOLINE_1  STRM_URALS_NAPHTHA_1     -1  PBAL_GASOLINE_1          1
    BL_URALS_NAPHTHA_GASOLINE_1  QUAL_GASOLINE_1          226
    BL_URALS_NAPHTHA_JET_1    STRM_URALS_NAPHTHA_1     -1  PBAL_JET_1               1
    BL_URALS_NAPHTHA_JET_1    QUAL_JET_1               -2224
    TSLACK_URALS_NAPHTHA_1    COST                     -180  TSTRM_URALS_NAPHTHA_1    -1
    TBL_URALS_NAPHTHA_GASOLINE_1  TSTRM_URALS_NAPHTHA_1    -1  PBAL_GASOLINE_1          1
    TBL_URALS_NAPHTHA_GASOLINE_1  QUAL_GASOLINE_1          -38.96
    TBL_URALS_NAPHTHA_JET_1   TSTRM_URALS_NAPHTHA_1    -1  PBAL_JET_1               1
    TBL_URALS_NAPHTHA_JET_1   QUAL_JET_1               -2488.96
    SLACK_URALS_KERO_1        COST                     -180  STRM_URALS_KERO_1        -1
    HDT_URALS_KERO_1          COST                     -240  STRM_URALS_KERO_1        -1
    HDT_URALS_KERO_1          TSTRM_URALS_KERO_1       1  HDTCAP_1                 1
    BL_URALS_KERO_GASOLINE_1  STRM_URALS_KERO_1        -1  PBAL_GASOLINE_1          1
    BL_URALS_KERO_GASOLINE_1  QUAL_GASOLINE_1          2020
    BL_URALS_KERO_JET_1       STRM_URALS_KERO_1        -1  PBAL_JET_1               1
    BL_URALS_KERO_JET_1       QUAL_JET_1               -430
    BL_URALS_KERO_DIESEL_P_1  STRM_URALS_KERO_1        -1  PBAL_DIESEL_P_1          1
    BL_URALS_KERO_DIESEL_P_1  QUAL_DIESEL_P_1          1720
    TSLACK_URALS_KERO_1       COST                     -180  TSTRM_URALS_KERO_1       -1
    TBL_URALS_KERO_GASOLINE_1  TSTRM_URALS_KERO_1       -1  PBAL_GASOLINE_1          1
    TBL_URALS_KERO_GASOLINE_1  QUAL_GASOLINE_1          32.8
    TBL_URALS_KERO_JET_1      TSTRM_URALS_KERO_1       -1  PBAL_JET_1               1
    TBL_URALS_KERO_JET_1      QUAL_JET_1               -2417.2
    TBL_URALS_KERO_DIESEL_P_1  TSTRM_URALS_KERO_1       -1  PBAL_DIESEL_P_1          1
    TBL_URALS_KERO_DIESEL_P_1  QUAL_DIESEL_P_1          -267.2
    SLACK_URALS_DIESEL_1      COST                     -180  STRM_URALS_DIESEL_1      -1
    HDT_URALS_DIESEL_1        COST                     -240  STRM_URALS_DIESEL_1      -1
    HDT_URALS_DIESEL_1        TSTRM_URALS_DIESEL_1     1  HDTCAP_1                 1
    BL_URALS_DIESEL_DIESEL_P_1  STRM_URALS_DIESEL_1      -1  PBAL_DIESEL_P_1          1
    BL_URALS_DIESEL_DIESEL_P_1  QUAL_DIESEL_P_1          7240
    BL_URALS_DIESEL_FUELOIL_1  STRM_URALS_DIESEL_1      -1  PBAL_FUELOIL_1           1
    BL_URALS_DIESEL_FUELOIL_1  QUAL_FUELOIL_1           -27410
    TSLACK_URALS_DIESEL_1     COST                     -180  TSTRM_URALS_DIESEL_1     -1
    TBL_URALS_DIESEL_DIESEL_P_1  TSTRM_URALS_DIESEL_1     -1  PBAL_DIESEL_P_1          1
    TBL_URALS_DIESEL_DIESEL_P_1  QUAL_DIESEL_P_1          -46.4
    TBL_URALS_DIESEL_FUELOIL_1  TSTRM_URALS_DIESEL_1     -1  PBAL_FUELOIL_1           1
    TBL_URALS_DIESEL_FUELOIL_1  QUAL_FUELOIL_1           -34696.4
    SLACK_URALS_VGO_1         COST                     -180  STRM_URALS_VGO_1         -1
    HDT_URALS_VGO_1           COST                     -240  STRM_URALS_VGO_1         -1
    HDT_URALS_VGO_1           TSTRM_URALS_VGO_1        1  HDTCAP_1                 1
    FCC_URALS_1               COST                     -310  STRM_URALS_VGO_1         -1
    FCC_URALS_1               FSTRM_URALS_NAPHTHA_1    0.55  FSTRM_URALS_DIESEL_1     0.25
    FCC_URALS_1               FCCCAP_1                 1
    BL_URALS_VGO_DIESEL_P_1   STRM_URALS_VGO_1         -1  PBAL_DIESEL_P_1          1
    BL_URALS_VGO_DIESEL_P_1   QUAL_DIESEL_P_1          18280
    BL_URALS_VGO_FUELOIL_1    STRM_URALS_VGO_1         -1  PBAL_FUELOIL_1           1
    BL_URALS_VGO_FUELOIL_1    QUAL_FUELOIL_1           -16370
    TSLACK_URALS_VGO_1        COST                     -180  TSTRM_URALS_VGO_1        -1
    TBL_URALS_VGO_DIESEL_P_1  TSTRM_URALS_VGO_1        -1  PBAL_DIESEL_P_1          1
    TBL_URALS_VGO_DIESEL_P_1  QUAL_DIESEL_P_1          395.2
    TBL_URALS_VGO_FUELOIL_1   TSTRM_URALS_VGO_1        -1  PBAL_FUELOIL_1           1
    TBL_URALS_VGO_FUELOIL_1   QUAL_FUELOIL_1           -34254.8
    SLACK_URALS_RESIDUE_1     COST                     -180  STRM_URALS_RESIDUE_1     -1
    HDT_URALS_RESIDUE_1       COST                     -240  STRM_URALS_RESIDUE_1     -1
    HDT_URALS_RESIDUE_1       TSTRM_URALS_RESIDUE_1    1  HDTCAP_1                 1
    BL_URALS_RESIDUE_FUELOIL_1  STRM_URALS_RESIDUE_1     -1  PBAL_FUELOIL_1           1
    BL_URALS_RESIDUE_FUELOIL_1  QUAL_FUELOIL_1           880
    TSLACK_URALS_RESIDUE_1    COST                     -180  TSTRM_URALS_RESIDUE_1    -1
    TBL_URALS_RESIDUE_FUELOIL_1  TSTRM_URALS_RESIDUE_1    -1  PBAL_FUELOIL_1           1
    TBL_URALS_RESIDUE_FUELOIL_1  QUAL_FUELOIL_1           -33564.8
    FSLACK_URALS_NAPHTHA_1    COST                     -180  FSTRM_URALS_NAPHTHA_1    -1
    FBL_URALS_NAPHTHA_GASOLINE_1  FSTRM_URALS_NAPHTHA_1    -1  PBAL_GASOLINE_1          1
    FBL_URALS_NAPHTHA_GASOLINE_1  QUAL_GASOLINE_1          46.6
    FBL_URALS_NAPHTHA_JET_1   FSTRM_URALS_NAPHTHA_1    -1  PBAL_JET_1               1
    FBL_URALS_NAPHTHA_JET_1   QUAL_JET_1               -2403.4
    FSLACK_URALS_DIESEL_1     COST                     -180  FSTRM_URALS_DIESEL_1     -1
    FBL_URALS_DIESEL_DIESEL_P_1  FSTRM_URALS_DIESEL_1     -1  PBAL_DIESEL_P_1          1
    FBL_URALS_DIESEL_DIESEL_P_1  QUAL_DIESEL_P_1          2306.5
    FBL_URALS_DIESEL_FUELOIL_1  FSTRM_URALS_DIESEL_1     -1  PBAL_FUELOIL_1           1
    FBL_URALS_DIESEL_FUELOIL_1  QUAL_FUELOIL_1           -32343.5
    BUY_MURBAN_1              COST                     -6980  CBAL_MURBAN_1            1
    INVC_MURBAN_1             COST                     -83.76  CBAL_MURBAN_1            -1
    INVC_MURBAN_1             CBAL_MURBAN_2            1
    CHG_MURBAN_1              COST                     -145  CBAL_MURBAN_1            -1
    CHG_MURBAN_1              CDUCAP_1                 1  STRM_MURBAN_NAPHTHA_1    0.28
    CHG_MURBAN_1              STRM_MURBAN_KERO_1       0.19  STRM_MURBAN_DIESEL_1     0.23
    CHG_MURBAN_1              STRM_MURBAN_VGO_1        0.19  STRM_MURBAN_RESIDUE_1    0.11
    SLACK_MURBAN_NAPHTHA_1    COST                     -180  STRM_MURBAN_NAPHTHA_1    -1
    HDT_MURBAN_NAPHTHA_1      COST                     -240  STRM_MURBAN_NAPHTHA_1    -1
    HDT_MURBAN_NAPHTHA_1      TSTRM_MURBAN_NAPHTHA_1   1  HDTCAP_1                 1
    BL_MURBAN_NAPHTHA_GASOLINE_1  STRM_MURBAN_NAPHTHA_1    -1  PBAL_GASOLINE_1          1
    BL_MURBAN_NAPHTHA_GASOLINE_1  QUAL_GASOLINE_1          98
    BL_MURBAN_NAPHTHA_JET_1   STRM_MURBAN_NAPHTHA_1    -1  PBAL_JET_1               1
    BL_MURBAN_NAPHTHA_JET_1   QUAL_JET_1               -2352
    TSLACK_MURBAN_NAPHTHA_1   COST                     -180  TSTRM_MURBAN_NAPHTHA_1   -1
    TBL_MURBAN_NAPHTHA_GASOLINE_1  TSTRM_MURBAN_NAPHTHA_1   -1  PBAL_GASOLINE_1          1
    TBL_MURBAN_NAPHTHA_GASOLINE_1  QUAL_GASOLINE_1          -44.08
    TBL_MURBAN_NAPHTHA_JET_1  TSTRM_MURBAN_NAPHTHA_1   -1  PBAL_JET_1               1
    TBL_MURBAN_NAPHTHA_JET_1  QUAL_JET_1               -2494.08
    SLACK_MURBAN_KERO_1       COST                     -180  STRM_MURBAN_KERO_1       -1
    HDT_MURBAN_KERO_1         COST                     -240  STRM_MURBAN_KERO_1       -1
    HDT_MURBAN_KERO_1         TSTRM_MURBAN_KERO_1      1  HDTCAP_1                 1
    BL_MURBAN_KERO_GASOLINE_1  STRM_MURBAN_KERO_1       -1  PBAL_GASOLINE_1          1
    BL_MURBAN_KERO_GASOLINE_1  QUAL_GASOLINE_1          1060
    BL_MURBAN_KERO_JET_1      STRM_MURBAN_KERO_1       -1  PBAL_JET_1               1
    BL_MURBAN_KERO_JET_1      QUAL_JET_1               -1390
    BL_MURBAN_KERO_DIESEL_P_1  STRM_MURBAN_KERO_1       -1  PBAL_DIESEL_P_1          1
    BL_MURBAN_KERO_DIESEL_P_1  QUAL_DIESEL_P_1          760
    TSLACK_MURBAN_KERO_1      COST                     -180  TSTRM_MURBAN_KERO_1      -1
    TBL_MURBAN_KERO_GASOLINE_1  TSTRM_MURBAN_KERO_1      -1  PBAL_GASOLINE_1          1
    TBL_MURBAN_KERO_GASOLINE_1  QUAL_GASOLINE_1          -5.6
    TBL_MURBAN_KERO_JET_1     TSTRM_MURBAN_KERO_1      -1  PBAL_JET_1               1
    TBL_MURBAN_KERO_JET_1     QUAL_JET_1               -2455.6
    TBL_MURBAN_KERO_DIESEL_P_1  TSTRM_MURBAN_KERO_1      -1  PBAL_DIESEL_P_1          1
    TBL_MURBAN_KERO_DIESEL_P_1  QUAL_DIESEL_P_1          -305.6
    SLACK_MURBAN_DIESEL_1     COST                     -180  STRM_MURBAN_DIESEL_1     -1
    HDT_MURBAN_DIESEL_1       COST                     -240  STRM_MURBAN_DIESEL_1     -1
    HDT_MURBAN_DIESEL_1       TSTRM_MURBAN_DIESEL_1    1  HDTCAP_1                 1
    BL_MURBAN_DIESEL_DIESEL_P_1  STRM_MURBAN_DIESEL_1     -1  PBAL_DIESEL_P_1          1
    BL_MURBAN_DIESEL_DIESEL_P_1  QUAL_DIESEL_P_1          3720
    BL_MURBAN_DIESEL_FUELOIL_1  STRM_MURBAN_DIESEL_1     -1  PBAL_FUELOIL_1           1
    BL_MURBAN_DIESEL_FUELOIL_1  QUAL_FUELOIL_1           -30930
    TSLACK_MURBAN_DIESEL_1    COST                     -180  TSTRM_MURBAN_DIESEL_1    -1
    TBL_MURBAN_DIESEL_DIESEL_P_1  TSTRM_MURBAN_DIESEL_1    -1  PBAL_DIESEL_P_1          1
    TBL_MURBAN_DIESEL_DIESEL_P_1  QUAL_DIESEL_P_1          -187.2
    TBL_MURBAN_DIESEL_FUELOIL_1  TSTRM_MURBAN_DIESEL_1    -1  PBAL_FUELOIL_1           1
    TBL_MURBAN_DIESEL_FUELOIL_1  QUAL_FUELOIL_1           -34837.2
    SLACK_MURBAN_VGO_1        COST                     -180  STRM_MURBAN_VGO_1        -1
    HDT_MURBAN_VGO_1          COST                     -240  STRM_MURBAN_VGO_1        -1
    HDT_MURBAN_VGO_1          TSTRM_MURBAN_VGO_1       1  HDTCAP_1                 1
    FCC_MURBAN_1              COST                     -310  STRM_MURBAN_VGO_1        -1
    FCC_MURBAN_1              FSTRM_MURBAN_NAPHTHA_1   0.55  FSTRM_MURBAN_DIESEL_1    0.25
    FCC_MURBAN_1              FCCCAP_1                 1
    BL_MURBAN_VGO_DIESEL_P_1  STRM_MURBAN_VGO_1        -1  PBAL_DIESEL_P_1          1
    BL_MURBAN_VGO_DIESEL_P_1  QUAL_DIESEL_P_1          9640
    BL_MURBAN_VGO_FUELOIL_1   STRM_MURBAN_VGO_1        -1  PBAL_FUELOIL_1           1
    BL_MURBAN_VGO_FUELOIL_1   QUAL_FUELOIL_1           -25010
    TSLACK_MURBAN_VGO_1       COST                     -180  TSTRM_MURBAN_VGO_1       -1
    TBL_MURBAN_VGO_DIESEL_P_1  TSTRM_MURBAN_VGO_1       -1  PBAL_DIESEL_P_1          1
    TBL_MURBAN_VGO_DIESEL_P_1  QUAL_DIESEL_P_1          49.6
    TBL_MURBAN_VGO_FUELOIL_1  TSTRM_MURBAN_VGO_1       -1  PBAL_FUELOIL_1           1
    TBL_MURBAN_VGO_FUELOIL_1  QUAL_FUELOIL_1           -34600.4
    SLACK_MURBAN_RESIDUE_1    COST                     -180  STRM_MURBAN_RESIDUE_1    -1
    HDT_MURBAN_RESIDUE_1      COST                     -240  STRM_MURBAN_RESIDUE_1    -1
    HDT_MURBAN_RESIDUE_1      TSTRM_MURBAN_RESIDUE_1   1  HDTCAP_1                 1
    BL_MURBAN_RESIDUE_FUELOIL_1  STRM_MURBAN_RESIDUE_1    -1  PBAL_FUELOIL_1           1
    BL_MURBAN_RESIDUE_FUELOIL_1  QUAL_FUELOIL_1           -15760
    TSLACK_MURBAN_RESIDUE_1   COST                     -180  TSTRM_MURBAN_RESIDUE_1   -1
    TBL_MURBAN_RESIDUE_FUELOIL_1  TSTRM_MURBAN_RESIDUE_1   -1  PBAL_FUELOIL_1           1
    TBL_MURBAN_RESIDUE_FUELOIL_1  QUAL_FUELOIL_1           -34230.4
    FSLACK_MURBAN_NAPHTHA_1   COST                     -180  FSTRM_MURBAN_NAPHTHA_1   -1
    FBL_MURBAN_NAPHTHA_GASOLINE_1  FSTRM_MURBAN_NAPHTHA_1   -1  PBAL_GASOLINE_1          1
    FBL_MURBAN_NAPHTHA_GASOLINE_1  QUAL_GASOLINE_1          1.8
    FBL_MURBAN_NAPHTHA_JET_1  FSTRM_MURBAN_NAPHTHA_1   -1  PBAL_JET_1               1
    FBL_MURBAN_NAPHTHA_JET_1  QUAL_JET_1               -2448.2
    FSLACK_MURBAN_DIESEL_1    COST                     -180  FSTRM_MURBAN_DIESEL_1    -1
    FBL_MURBAN_DIESEL_DIESEL_P_1  FSTRM_MURBAN_DIESEL_1    -1  PBAL_DIESEL_P_1          1
    FBL_MURBAN_DIESEL_DIESEL_P_1  QUAL_DIESEL_P_1          1074.5
    FBL_MURBAN_DIESEL_FUELOIL_1  FSTRM_MURBAN_DIESEL_1    -1  PBAL_FUELOIL_1           1
    FBL_MURBAN_DIESEL_FUELOIL_1  QUAL_FUELOIL_1           -33575.5
    BUY_ES_SIDER_1            COST                     -6540  CBAL_ES_SIDER_1          1
    INVC_ES_SIDER_1           COST                     -78.48  CBAL_ES_SIDER_1          -1
    INVC_ES_SIDER_1           CBAL_ES_SIDER_2          1
    CHG_ES_SIDER_1            COST                     -145  CBAL_ES_SIDER_1          -1
    CHG_ES_SIDER_1            CDUCAP_1                 1  STRM_ES_SIDER_NAPHTHA_1  0.25
    CHG_ES_SIDER_1            STRM_ES_SIDER_KERO_1     0.18  STRM_ES_SIDER_DIESEL_1   0.25
    CHG_ES_SIDER_1            STRM_ES_SIDER_VGO_1      0.2  STRM_ES_SIDER_RESIDUE_1  0.12
    SLACK_ES_SIDER_NAPHTHA_1  COST                     -180  STRM_ES_SIDER_NAPHTHA_1  -1
    HDT_ES_SIDER_NAPHTHA_1    COST                     -240  STRM_ES_SIDER_NAPHTHA_1  -1
    HDT_ES_SIDER_NAPHTHA_1    TSTRM_ES_SIDER_NAPHTHA_1 1  HDTCAP_1                 1
    BL_ES_SIDER_NAPHTHA_GASOLINE_1  STRM_ES_SIDER_NAPHTHA_1  -1  PBAL_GASOLINE_1          1
    BL_ES_SIDER_NAPHTHA_GASOLINE_1  QUAL_GASOLINE_1          32
    BL_ES_SIDER_NAPHTHA_JET_1  STRM_ES_SIDER_NAPHTHA_1  -1  PBAL_JET_1               1
    BL_ES_SIDER_NAPHTHA_JET_1  QUAL_JET_1               -2418
    TSLACK_ES_SIDER_NAPHTHA_1  COST                     -180  TSTRM_ES_SIDER_NAPHTHA_1 -1
    TBL_ES_SIDER_NAPHTHA_GASOLINE_1  TSTRM_ES_SIDER_NAPHTHA_1 -1  PBAL_GASOLINE_1          1
    TBL_ES_SIDER_NAPHTHA_GASOLINE_1  QUAL_GASOLINE_1          -46.72
    TBL_ES_SIDER_NAPHTHA_JET_1  TSTRM_ES_SIDER_NAPHTHA_1 -1  PBAL_JET_1               1
    TBL_ES_SIDER_NAPHTHA_JET_1  QUAL_JET_1               -2496.72
    SLACK_ES_SIDER_KERO_1     COST                     -180  STRM_ES_SIDER_KERO_1     -1
    HDT_ES_SIDER_KERO_1       COST                     -240  STRM_ES_SIDER_KERO_1     -1
    HDT_ES_SIDER_KERO_1       TSTRM_ES_SIDER_KERO_1    1  HDTCAP_1                 1
    BL_ES_SIDER_KERO_GASOLINE_1  STRM_ES_SIDER_KERO_1     -1  PBAL_GASOLINE_1          1
    BL_ES_SIDER_KERO_GASOLINE_1  QUAL_GASOLINE_1          565
    BL_ES_SIDER_KERO_JET_1    STRM_ES_SIDER_KERO_1     -1  PBAL_JET_1               1
    BL_ES_SIDER_KERO_JET_1    QUAL_JET_1               -1885
    BL_ES_SIDER_KERO_DIESEL_P_1  STRM_ES_SIDER_KERO_1     -1  PBAL_DIESEL_P_1          1
    BL_ES_SIDER_KERO_DIESEL_P_1  QUAL_DIESEL_P_1          265
    TSLACK_ES_SIDER_KERO_1    COST                     -180  TSTRM_ES_SIDER_KERO_1    -1
    TBL_ES_SIDER_KERO_GASOLINE_1  TSTRM_ES_SIDER_KERO_1    -1  PBAL_GASOLINE_1          1
    TBL_ES_SIDER_KERO_GASOLINE_1  QUAL_GASOLINE_1          -25.4
    TBL_ES_SIDER_KERO_JET_1   TSTRM_ES_SIDER_KERO_1    -1  PBAL_JET_1               1
    TBL_ES_SIDER_KERO_JET_1   QUAL_JET_1               -2475.4
    TBL_ES_SIDER_KERO_DIESEL_P_1  TSTRM_ES_SIDER_KERO_1    -1  PBAL_DIESEL_P_1          1
    TBL_ES_SIDER_KERO_DIESEL_P_1  QUAL_DIESEL_P_1          -325.4
    SLACK_ES_SIDER_DIESEL_1   COST                     -180  STRM_ES_SIDER_DIESEL_1   -1
    HDT_ES_SIDER_DIESEL_1     COST                     -240  STRM_ES_SIDER_DIESEL_1   -1
    HDT_ES_SIDER_DIESEL_1     TSTRM_ES_SIDER_DIESEL_1  1  HDTCAP_1                 1
    BL_ES_SIDER_DIESEL_DIESEL_P_1  STRM_ES_SIDER_DIESEL_1   -1  PBAL_DIESEL_P_1          1
    BL_ES_SIDER_DIESEL_DIESEL_P_1  QUAL_DIESEL_P_1          1905
    BL_ES_SIDER_DIESEL_FUELOIL_1  STRM_ES_SIDER_DIESEL_1   -1  PBAL_FUELOIL_1           1
    BL_ES_SIDER_DIESEL_FUELOIL_1  QUAL_FUELOIL_1           -32745
    TSLACK_ES_SIDER_DIESEL_1  COST                     -180  TSTRM_ES_SIDER_DIESEL_1  -1
    TBL_ES_SIDER_DIESEL_DIESEL_P_1  TSTRM_ES_SIDER_DIESEL_1  -1  PBAL_DIESEL_P_1          1
    TBL_ES_SIDER_DIESEL_DIESEL_P_1  QUAL_DIESEL_P_1          -259.8
    TBL_ES_SIDER_DIESEL_FUELOIL_1  TSTRM_ES_SIDER_DIESEL_1  -1  PBAL_FUELOIL_1           1
    TBL_ES_SIDER_DIESEL_FUELOIL_1  QUAL_FUELOIL_1           -34909.8
    SLACK_ES_SIDER_VGO_1      COST                     -180  STRM_ES_SIDER_VGO_1      -1
    HDT_ES_SIDER_VGO_1        COST                     -240  STRM_ES_SIDER_VGO_1      -1
    HDT_ES_SIDER_VGO_1        TSTRM_ES_SIDER_VGO_1     1  HDTCAP_1                 1
    FCC_ES_SIDER_1            COST                     -310  STRM_ES_SIDER_VGO_1      -1
    FCC_ES_SIDER_1            FSTRM_ES_SIDER_NAPHTHA_1 0.55  FSTRM_ES_SIDER_DIESEL_1  0.25
    FCC_ES_SIDER_1            FCCCAP_1                 1
    BL_ES_SIDER_VGO_DIESEL_P_1  STRM_ES_SIDER_VGO_1      -1  PBAL_DIESEL_P_1          1
    BL_ES_SIDER_VGO_DIESEL_P_1  QUAL_DIESEL_P_1          5185
    BL_ES_SIDER_VGO_FUELOIL_1  STRM_ES_SIDER_VGO_1      -1  PBAL_FUELOIL_1           1
    BL_ES_SIDER_VGO_FUELOIL_1  QUAL_FUELOIL_1           -29465
    TSLACK_ES_SIDER_VGO_1     COST                     -180  TSTRM_ES_SIDER_VGO_1     -1
    TBL_ES_SIDER_VGO_DIESEL_P_1  TSTRM_ES_SIDER_VGO_1     -1  PBAL_DIESEL_P_1          1
    TBL_ES_SIDER_VGO_DIESEL_P_1  QUAL_DIESEL_P_1          -128.6
    TBL_ES_SIDER_VGO_FUELOIL_1  TSTRM_ES_SIDER_VGO_1     -1  PBAL_FUELOIL_1           1
    TBL_ES_SIDER_VGO_FUELOIL_1  QUAL_FUELOIL_1           -34778.6
    SLACK_ES_SIDER_RESIDUE_1  COST                     -180  STRM_ES_SIDER_RESIDUE_1  -1
    HDT_ES_SIDER_RESIDUE_1    COST                     -240  STRM_ES_SIDER_RESIDUE_1  -1
    HDT_ES_SIDER_RESIDUE_1    TSTRM_ES_SIDER_RESIDUE_1 1  HDTCAP_1                 1
    BL_ES_SIDER_RESIDUE_FUELOIL_1  STRM_ES_SIDER_RESIDUE_1  -1  PBAL_FUELOIL_1           1
    BL_ES_SIDER_RESIDUE_FUELOIL_1  QUAL_FUELOIL_1           -24340
    TSLACK_ES_SIDER_RESIDUE_1  COST                     -180  TSTRM_ES_SIDER_RESIDUE_1 -1
    TBL_ES_SIDER_RESIDUE_FUELOIL_1  TSTRM_ES_SIDER_RESIDUE_1 -1  PBAL_FUELOIL_1           1
    TBL_ES_SIDER_RESIDUE_FUELOIL_1  QUAL_FUELOIL_1           -34573.6
    FSLACK_ES_SIDER_NAPHTHA_1  COST                     -180  FSTRM_ES_SIDER_NAPHTHA_1 -1
    FBL_ES_SIDER_NAPHTHA_GASOLINE_1  FSTRM_ES_SIDER_NAPHTHA_1 -1  PBAL_GASOLINE_1          1
    FBL_ES_SIDER_NAPHTHA_GASOLINE_1  QUAL_GASOLINE_1          -21.3
    FBL_ES_SIDER_NAPHTHA_JET_1  FSTRM_ES_SIDER_NAPHTHA_1 -1  PBAL_JET_1               1
    FBL_ES_SIDER_NAPHTHA_JET_1  QUAL_JET_1               -2471.3
    FSLACK_ES_SIDER_DIESEL_1  COST                     -180  FSTRM_ES_SIDER_DIESEL_1  -1
    FBL_ES_SIDER_DIESEL_DIESEL_P_1  FSTRM_ES_SIDER_DIESEL_1  -1  PBAL_DIESEL_P_1          1
    FBL_ES_SIDER_DIESEL_DIESEL_P_1  QUAL_DIESEL_P_1          439.25
    FBL_ES_SIDER_DIESEL_FUELOIL_1  FSTRM_ES_SIDER_DIESEL_1  -1  PBAL_FUELOIL_1           1
    FBL_ES_SIDER_DIESEL_FUELOIL_1  QUAL_FUELOIL_1           -34210.75
    BUY_QUA_IBOE_1            COST                     -6890  CBAL_QUA_IBOE_1          1
    INVC_QUA_IBOE_1           COST                     -82.68  CBAL_QUA_IBOE_1          -1
    INVC_QUA_IBOE_1           CBAL_QUA_IBOE_2          1
    CHG_QUA_IBOE_1            COST                     -145  CBAL_QUA_IBOE_1          -1
    CHG_QUA_IBOE_1            CDUCAP_1                 1  STRM_QUA_IBOE_NAPHTHA_1  0.27
    CHG_QUA_IBOE_1            STRM_QUA_IBOE_KERO_1     0.2  STRM_QUA_IBOE_DIESEL_1   0.25
    CHG_QUA_IBOE_1            STRM_QUA_IBOE_VGO_1      0.18  STRM_QUA_IBOE_RESIDUE_1  0.1
    SLACK_QUA_IBOE_NAPHTHA_1  COST                     -180  STRM_QUA_IBOE_NAPHTHA_1  -1
    HDT_QUA_IBOE_NAPHTHA_1    COST                     -240  STRM_QUA_IBOE_NAPHTHA_1  -1
    HDT_QUA_IBOE_NAPHTHA_1    TSTRM_QUA_IBOE_NAPHTHA_1 1  HDTCAP_1                 1
    BL_QUA_IBOE_NAPHTHA_GASOLINE_1  STRM_QUA_IBOE_NAPHTHA_1  -1  PBAL_GASOLINE_1          1
    BL_QUA_IBOE_NAPHTHA_GASOLINE_1  QUAL_GASOLINE_1          -24
    BL_QUA_IBOE_NAPHTHA_JET_1  STRM_QUA_IBOE_NAPHTHA_1  -1  PBAL_JET_1               1
    BL_QUA_IBOE_NAPHTHA_JET_1  QUAL_JET_1               -2474
    TSLACK_QUA_IBOE_NAPHTHA_1  COST                     -180  TSTRM_QUA_IBOE_NAPHTHA_1 -1
    TBL_QUA_IBOE_NAPHTHA_GASOLINE_1  TSTRM_QUA_IBOE_NAPHTHA_1 -1  PBAL_GASOLINE_1          1
    TBL_QUA_IBOE_NAPHTHA_GASOLINE_1  QUAL_GASOLINE_1          -48.96
    TBL_QUA_IBOE_NAPHTHA_JET_1  TSTRM_QUA_IBOE_NAPHTHA_1 -1  PBAL_JET_1               1
    TBL_QUA_IBOE_NAPHTHA_JET_1  QUAL_JET_1               -2498.96
    SLACK_QUA_IBOE_KERO_1     COST                     -180  STRM_QUA_IBOE_KERO_1     -1
    HDT_QUA_IBOE_KERO_1       COST                     -240  STRM_QUA_IBOE_KERO_1     -1
    HDT_QUA_IBOE_KERO_1       TSTRM_QUA_IBOE_KERO_1    1  HDTCAP_1                 1
    BL_QUA_IBOE_KERO_GASOLINE_1  STRM_QUA_IBOE_KERO_1     -1  PBAL_GASOLINE_1          1
    BL_QUA_IBOE_KERO_GASOLINE_1  QUAL_GASOLINE_1          145
    BL_QUA_IBOE_KERO_JET_1    STRM_QUA_IBOE_KERO_1     -1  PBAL_JET_1               1
    BL_QUA_IBOE_KERO_JET_1    QUAL_JET_1               -2305
    BL_QUA_IBOE_KERO_DIESEL_P_1  STRM_QUA_IBOE_KERO_1     -1  PBAL_DIESEL_P_1          1
    BL_QUA_IBOE_KERO_DIESEL_P_1  QUAL_DIESEL_P_1          -155
    TSLACK_QUA_IBOE_KERO_1    COST                     -180  TSTRM_QUA_IBOE_KERO_1    -1
    TBL_QUA_IBOE_KERO_GASOLINE_1  TSTRM_QUA_IBOE_KERO_1    -1  PBAL_GASOLINE_1          1
    TBL_QUA_IBOE_KERO_GASOLINE_1  QUAL_GASOLINE_1          -42.2
    TBL_QUA_IBOE_KERO_JET_1   TSTRM_QUA_IBOE_KERO_1    -1  PBAL_JET_1               1
    TBL_QUA_IBOE_KERO_JET_1   QUAL_JET_1               -2492.2
    TBL_QUA_IBOE_KERO_DIESEL_P_1  TSTRM_QUA_IBOE_KERO_1    -1  PBAL_DIESEL_P_1          1
    TBL_QUA_IBOE_KERO_DIESEL_P_1  QUAL_DIESEL_P_1          -342.2
    SLACK_QUA_IBOE_DIESEL_1   COST                     -180  STRM_QUA_IBOE_DIESEL_1   -1
    HDT_QUA_IBOE_DIESEL_1     COST                     -240  STRM_QUA_IBOE_DIESEL_1   -1
    HDT_QUA_IBOE_DIESEL_1     TSTRM_QUA_IBOE_DIESEL_1  1  HDTCAP_1                 1
    BL_QUA_IBOE_DIESEL_DIESEL_P_1  STRM_QUA_IBOE_DIESEL_1   -1  PBAL_DIESEL_P_1          1
    BL_QUA_IBOE_DIESEL_DIESEL_P_1  QUAL_DIESEL_P_1          365
    BL_QUA_IBOE_DIESEL_FUELOIL_1  STRM_QUA_IBOE_DIESEL_1   -1  PBAL_FUELOIL_1           1
    BL_QUA_IBOE_DIESEL_FUELOIL_1  QUAL_FUELOIL_1           -34285
    TSLACK_QUA_IBOE_DIESEL_1  COST                     -180  TSTRM_QUA_IBOE_DIESEL_1  -1
    TBL_QUA_IBOE_DIESEL_DIESEL_P_1  TSTRM_QUA_IBOE_DIESEL_1  -1  PBAL_DIESEL_P_1          1
    TBL_QUA_IBOE_DIESEL_DIESEL_P_1  QUAL_DIESEL_P_1          -321.4
    TBL_QUA_IBOE_DIESEL_FUELOIL_1  TSTRM_QUA_IBOE_DIESEL_1  -1  PBAL_FUELOIL_1           1
    TBL_QUA_IBOE_DIESEL_FUELOIL_1  QUAL_FUELOIL_1           -34971.4
    SLACK_QUA_IBOE_VGO_1      COST                     -180  STRM_QUA_IBOE_VGO_1      -1
    HDT_QUA_IBOE_VGO_1        COST                     -240  STRM_QUA_IBOE_VGO_1      -1
    HDT_QUA_IBOE_VGO_1        TSTRM_QUA_IBOE_VGO_1     1  HDTCAP_1                 1
    FCC_QUA_IBOE_1            COST                     -310  STRM_QUA_IBOE_VGO_1      -1
    FCC_QUA_IBOE_1            FSTRM_QUA_IBOE_NAPHTHA_1 0.55  FSTRM_QUA_IBOE_DIESEL_1  0.25
    FCC_QUA_IBOE_1            FCCCAP_1                 1
    BL_QUA_IBOE_VGO_DIESEL_P_1  STRM_QUA_IBOE_VGO_1      -1  PBAL_DIESEL_P_1          1
    BL_QUA_IBOE_VGO_DIESEL_P_1  QUAL_DIESEL_P_1          1405
    BL_QUA_IBOE_VGO_FUELOIL_1  STRM_QUA_IBOE_VGO_1      -1  PBAL_FUELOIL_1           1
    BL_QUA_IBOE_VGO_FUELOIL_1  QUAL_FUELOIL_1           -33245
    TSLACK_QUA_IBOE_VGO_1     COST                     -180  TSTRM_QUA_IBOE_VGO_1     -1
    TBL_QUA_IBOE_VGO_DIESEL_P_1  TSTRM_QUA_IBOE_VGO_1     -1  PBAL_DIESEL_P_1          1
    TBL_QUA_IBOE_VGO_DIESEL_P_1  QUAL_DIESEL_P_1          -279.8
    TBL_QUA_IBOE_VGO_FUELOIL_1  TSTRM_QUA_IBOE_VGO_1     -1  PBAL_FUELOIL_1           1
    TBL_QUA_IBOE_VGO_FUELOIL_1  QUAL_FUELOIL_1           -34929.8
    SLACK_QUA_IBOE_RESIDUE_1  COST                     -180  STRM_QUA_IBOE_RESIDUE_1  -1
    HDT_QUA_IBOE_RESIDUE_1    COST                     -240  STRM_QUA_IBOE_RESIDUE_1  -1
    HDT_QUA_IBOE_RESIDUE_1    TSTRM_QUA_IBOE_RESIDUE_1 1  HDTCAP_1                 1
    BL_QUA_IBOE_RESIDUE_FUELOIL_1  STRM_QUA_IBOE_RESIDUE_1  -1  PBAL_FUELOIL_1           1
    BL_QUA_IBOE_RESIDUE_FUELOIL_1  QUAL_FUELOIL_1           -31620
    TSLACK_QUA_IBOE_RESIDUE_1  COST                     -180  TSTRM_QUA_IBOE_RESIDUE_1 -1
    TBL_QUA_IBOE_RESIDUE_FUELOIL_1  TSTRM_QUA_IBOE_RESIDUE_1 -1  PBAL_FUELOIL_1           1
    TBL_QUA_IBOE_RESIDUE_FUELOIL_1  QUAL_FUELOIL_1           -34864.8
    FSLACK_QUA_IBOE_NAPHTHA_1  COST                     -180  FSTRM_QUA_IBOE_NAPHTHA_1 -1
    FBL_QUA_IBOE_NAPHTHA_GASOLINE_1  FSTRM_QUA_IBOE_NAPHTHA_1 -1  PBAL_GASOLINE_1          1
    FBL_QUA_IBOE_NAPHTHA_GASOLINE_1  QUAL_GASOLINE_1          -40.9
    FBL_QUA_IBOE_NAPHTHA_JET_1  FSTRM_QUA_IBOE_NAPHTHA_1 -1  PBAL_JET_1               1
    FBL_QUA_IBOE_NAPHTHA_JET_1  QUAL_JET_1               -2490.9
    FSLACK_QUA_IBOE_DIESEL_1  COST                     -180  FSTRM_QUA_IBOE_DIESEL_1  -1
    FBL_QUA_IBOE_DIESEL_DIESEL_P_1  FSTRM_QUA_IBOE_DIESEL_1  -1  PBAL_DIESEL_P_1          1
    FBL_QUA_IBOE_DIESEL_DIESEL_P_1  QUAL_DIESEL_P_1          -99.75
    FBL_QUA_IBOE_DIESEL_FUELOIL_1  FSTRM_QUA_IBOE_DIESEL_1  -1  PBAL_FUELOIL_1           1
    FBL_QUA_IBOE_DIESEL_FUELOIL_1  QUAL_FUELOIL_1           -34749.75
    SELL_GASOLINE_1           COST                     9250  PBAL_GASOLINE_1          -1
    SELL_JET_1                COST                     8900  PBAL_JET_1               -1
    SELL_DIESEL_P_1           COST                     8600  PBAL_DIESEL_P_1          -1
    SELL_FUELOIL_1            COST                     4900  PBAL_FUELOIL_1           -1
    BUY_BOMBAY_HIGH_2         COST                     -6850  CBAL_BOMBAY_HIGH_2       1
    INVC_BOMBAY_HIGH_2        COST                     -82.2  CBAL_BOMBAY_HIGH_2       -1
    INVC_BOMBAY_HIGH_2        CBAL_BOMBAY_HIGH_3       1
    CHG_BOMBAY_HIGH_2         COST                     -145  CBAL_BOMBAY_HIGH_2       -1
    CHG_BOMBAY_HIGH_2         CDUCAP_2                 1  STRM_BOMBAY_HIGH_NAPHTHA_2 0.26
    CHG_BOMBAY_HIGH_2         STRM_BOMBAY_HIGH_KERO_2  0.18  STRM_BOMBAY_HIGH_DIESEL_2 0.24
    CHG_BOMBAY_HIGH_2         STRM_BOMBAY_HIGH_VGO_2   0.2  STRM_BOMBAY_HIGH_RESIDUE_2 0.12
    SLACK_BOMBAY_HIGH_NAPHTHA_2  COST                     -180  STRM_BOMBAY_HIGH_NAPHTHA_2 -1
    HDT_BOMBAY_HIGH_NAPHTHA_2  COST                     -240  STRM_BOMBAY_HIGH_NAPHTHA_2 -1
    HDT_BOMBAY_HIGH_NAPHTHA_2  TSTRM_BOMBAY_HIGH_NAPHTHA_2 1  HDTCAP_2                 1
    BL_BOMBAY_HIGH_NAPHTHA_GASOLINE_2  STRM_BOMBAY_HIGH_NAPHTHA_2 -1  PBAL_GASOLINE_2          1
    BL_BOMBAY_HIGH_NAPHTHA_GASOLINE_2  QUAL_GASOLINE_2          -32
    BL_BOMBAY_HIGH_NAPHTHA_JET_2  STRM_BOMBAY_HIGH_NAPHTHA_2 -1  PBAL_JET_2               1
    BL_BOMBAY_HIGH_NAPHTHA_JET_2  QUAL_JET_2               -2482
    TSLACK_BOMBAY_HIGH_NAPHTHA_2  COST                     -180  TSTRM_BOMBAY_HIGH_NAPHTHA_2 -1
    TBL_BOMBAY_HIGH_NAPHTHA_GASOLINE_2  TSTRM_BOMBAY_HIGH_NAPHTHA_2 -1  PBAL_GASOLINE_2          1
    TBL_BOMBAY_HIGH_NAPHTHA_GASOLINE_2  QUAL_GASOLINE_2          -49.28
    TBL_BOMBAY_HIGH_NAPHTHA_JET_2  TSTRM_BOMBAY_HIGH_NAPHTHA_2 -1  PBAL_JET_2               1
    TBL_BOMBAY_HIGH_NAPHTHA_JET_2  QUAL_JET_2               -2499.28
    SLACK_BOMBAY_HIGH_KERO_2  COST                     -180  STRM_BOMBAY_HIGH_KERO_2  -1
    HDT_BOMBAY_HIGH_KERO_2    COST                     -240  STRM_BOMBAY_HIGH_KERO_2  -1
    HDT_BOMBAY_HIGH_KERO_2    TSTRM_BOMBAY_HIGH_KERO_2 1  HDTCAP_2                 1
    BL_BOMBAY_HIGH_KERO_GASOLINE_2  STRM_BOMBAY_HIGH_KERO_2  -1  PBAL_GASOLINE_2          1
    BL_BOMBAY_HIGH_KERO_GASOLINE_2  QUAL_GASOLINE_2          85
    BL_BOMBAY_HIGH_KERO_JET_2  STRM_BOMBAY_HIGH_KERO_2  -1  PBAL_JET_2               1
    BL_BOMBAY_HIGH_KERO_JET_2  QUAL_JET_2               -2365
    BL_BOMBAY_HIGH_KERO_DIESEL_P_2  STRM_BOMBAY_HIGH_KERO_2  -1  PBAL_DIESEL_P_2          1
    BL_BOMBAY_HIGH_KERO_DIESEL_P_2  QUAL_DIESEL_P_2          -215
    TSLACK_BOMBAY_HIGH_KERO_2  COST                     -180  TSTRM_BOMBAY_HIGH_KERO_2 -1
    TBL_BOMBAY_HIGH_KERO_GASOLINE_2  TSTRM_BOMBAY_HIGH_KERO_2 -1  PBAL_GASOLINE_2          1
    TBL_BOMBAY_HIGH_KERO_GASOLINE_2  QUAL_GASOLINE_2          -44.6
    TBL_BOMBAY_HIGH_KERO_JET_2  TSTRM_BOMBAY_HIGH_KERO_2 -1  PBAL_JET_2               1
    TBL_BOMBAY_HIGH_KERO_JET_2  QUAL_JET_2               -2494.6
    TBL_BOMBAY_HIGH_KERO_DIESEL_P_2  TSTRM_BOMBAY_HIGH_KERO_2 -1  PBAL_DIESEL_P_2          1
    TBL_BOMBAY_HIGH_KERO_DIESEL_P_2  QUAL_DIESEL_P_2          -344.6
    SLACK_BOMBAY_HIGH_DIESEL_2  COST                     -180  STRM_BOMBAY_HIGH_DIESEL_2 -1
    HDT_BOMBAY_HIGH_DIESEL_2  COST                     -240  STRM_BOMBAY_HIGH_DIESEL_2 -1
    HDT_BOMBAY_HIGH_DIESEL_2  TSTRM_BOMBAY_HIGH_DIESEL_2 1  HDTCAP_2                 1
    BL_BOMBAY_HIGH_DIESEL_DIESEL_P_2  STRM_BOMBAY_HIGH_DIESEL_2 -1  PBAL_DIESEL_P_2          1
    BL_BOMBAY_HIGH_DIESEL_DIESEL_P_2  QUAL_DIESEL_P_2          145
    BL_BOMBAY_HIGH_DIESEL_FUELOIL_2  STRM_BOMBAY_HIGH_DIESEL_2 -1  PBAL_FUELOIL_2           1
    BL_BOMBAY_HIGH_DIESEL_FUELOIL_2  QUAL_FUELOIL_2           -34505
    TSLACK_BOMBAY_HIGH_DIESEL_2  COST                     -180  TSTRM_BOMBAY_HIGH_DIESEL_2 -1
    TBL_BOMBAY_HIGH_DIESEL_DIESEL_P_2  TSTRM_BOMBAY_HIGH_DIESEL_2 -1  PBAL_DIESEL_P_2          1
    TBL_BOMBAY_HIGH_DIESEL_DIESEL_P_2  QUAL_DIESEL_P_2          -330.2
    TBL_BOMBAY_HIGH_DIESEL_FUELOIL_2  TSTRM_BOMBAY_HIGH_DIESEL_2 -1  PBAL_FUELOIL_2           1
    TBL_BOMBAY_HIGH_DIESEL_FUELOIL_2  QUAL_FUELOIL_2           -34980.2
    SLACK_BOMBAY_HIGH_VGO_2   COST                     -180  STRM_BOMBAY_HIGH_VGO_2   -1
    HDT_BOMBAY_HIGH_VGO_2     COST                     -240  STRM_BOMBAY_HIGH_VGO_2   -1
    HDT_BOMBAY_HIGH_VGO_2     TSTRM_BOMBAY_HIGH_VGO_2  1  HDTCAP_2                 1
    FCC_BOMBAY_HIGH_2         COST                     -310  STRM_BOMBAY_HIGH_VGO_2   -1
    FCC_BOMBAY_HIGH_2         FSTRM_BOMBAY_HIGH_NAPHTHA_2 0.55  FSTRM_BOMBAY_HIGH_DIESEL_2 0.25
    FCC_BOMBAY_HIGH_2         FCCCAP_2                 1
    BL_BOMBAY_HIGH_VGO_DIESEL_P_2  STRM_BOMBAY_HIGH_VGO_2   -1  PBAL_DIESEL_P_2          1
    BL_BOMBAY_HIGH_VGO_DIESEL_P_2  QUAL_DIESEL_P_2          865
    BL_BOMBAY_HIGH_VGO_FUELOIL_2  STRM_BOMBAY_HIGH_VGO_2   -1  PBAL_FUELOIL_2           1
    BL_BOMBAY_HIGH_VGO_FUELOIL_2  QUAL_FUELOIL_2           -33785
    TSLACK_BOMBAY_HIGH_VGO_2  COST                     -180  TSTRM_BOMBAY_HIGH_VGO_2  -1
    TBL_BOMBAY_HIGH_VGO_DIESEL_P_2  TSTRM_BOMBAY_HIGH_VGO_2  -1  PBAL_DIESEL_P_2          1
    TBL_BOMBAY_HIGH_VGO_DIESEL_P_2  QUAL_DIESEL_P_2          -301.4
    TBL_BOMBAY_HIGH_VGO_FUELOIL_2  TSTRM_BOMBAY_HIGH_VGO_2  -1  PBAL_FUELOIL_2           1
    TBL_BOMBAY_HIGH_VGO_FUELOIL_2  QUAL_FUELOIL_2           -34951.4
    SLACK_BOMBAY_HIGH_RESIDUE_2  COST                     -180  STRM_BOMBAY_HIGH_RESIDUE_2 -1
    HDT_BOMBAY_HIGH_RESIDUE_2  COST                     -240  STRM_BOMBAY_HIGH_RESIDUE_2 -1
    HDT_BOMBAY_HIGH_RESIDUE_2  TSTRM_BOMBAY_HIGH_RESIDUE_2 1  HDTCAP_2                 1
    BL_BOMBAY_HIGH_RESIDUE_FUELOIL_2  STRM_BOMBAY_HIGH_RESIDUE_2 -1  PBAL_FUELOIL_2           1
    BL_BOMBAY_HIGH_RESIDUE_FUELOIL_2  QUAL_FUELOIL_2           -32660
    TSLACK_BOMBAY_HIGH_RESIDUE_2  COST                     -180  TSTRM_BOMBAY_HIGH_RESIDUE_2 -1
    TBL_BOMBAY_HIGH_RESIDUE_FUELOIL_2  TSTRM_BOMBAY_HIGH_RESIDUE_2 -1  PBAL_FUELOIL_2           1
    TBL_BOMBAY_HIGH_RESIDUE_FUELOIL_2  QUAL_FUELOIL_2           -34906.4
    FSLACK_BOMBAY_HIGH_NAPHTHA_2  COST                     -180  FSTRM_BOMBAY_HIGH_NAPHTHA_2 -1
    FBL_BOMBAY_HIGH_NAPHTHA_GASOLINE_2  FSTRM_BOMBAY_HIGH_NAPHTHA_2 -1  PBAL_GASOLINE_2          1
    FBL_BOMBAY_HIGH_NAPHTHA_GASOLINE_2  QUAL_GASOLINE_2          -43.7
    FBL_BOMBAY_HIGH_NAPHTHA_JET_2  FSTRM_BOMBAY_HIGH_NAPHTHA_2 -1  PBAL_JET_2               1
    FBL_BOMBAY_HIGH_NAPHTHA_JET_2  QUAL_JET_2               -2493.7
    FSLACK_BOMBAY_HIGH_DIESEL_2  COST                     -180  FSTRM_BOMBAY_HIGH_DIESEL_2 -1
    FBL_BOMBAY_HIGH_DIESEL_DIESEL_P_2  FSTRM_BOMBAY_HIGH_DIESEL_2 -1  PBAL_DIESEL_P_2          1
    FBL_BOMBAY_HIGH_DIESEL_DIESEL_P_2  QUAL_DIESEL_P_2          -176.75
    FBL_BOMBAY_HIGH_DIESEL_FUELOIL_2  FSTRM_BOMBAY_HIGH_DIESEL_2 -1  PBAL_FUELOIL_2           1
    FBL_BOMBAY_HIGH_DIESEL_FUELOIL_2  QUAL_FUELOIL_2           -34826.75
    BUY_ARAB_LIGHT_2          COST                     -6420  CBAL_ARAB_LIGHT_2        1
    INVC_ARAB_LIGHT_2         COST                     -77.04  CBAL_ARAB_LIGHT_2        -1
    INVC_ARAB_LIGHT_2         CBAL_ARAB_LIGHT_3        1
    CHG_ARAB_LIGHT_2          COST                     -145  CBAL_ARAB_LIGHT_2        -1
    CHG_ARAB_LIGHT_2          CDUCAP_2                 1  STRM_ARAB_LIGHT_NAPHTHA_2 0.22
    CHG_ARAB_LIGHT_2          STRM_ARAB_LIGHT_KERO_2   0.17  STRM_ARAB_LIGHT_DIESEL_2 0.23
    CHG_ARAB_LIGHT_2          STRM_ARAB_LIGHT_VGO_2    0.22  STRM_ARAB_LIGHT_RESIDUE_2 0.16
    SLACK_ARAB_LIGHT_NAPHTHA_2  COST                     -180  STRM_ARAB_LIGHT_NAPHTHA_2 -1
    HDT_ARAB_LIGHT_NAPHTHA_2  COST                     -240  STRM_ARAB_LIGHT_NAPHTHA_2 -1
    HDT_ARAB_LIGHT_NAPHTHA_2  TSTRM_ARAB_LIGHT_NAPHTHA_2 1  HDTCAP_2                 1
    BL_ARAB_LIGHT_NAPHTHA_GASOLINE_2  STRM_ARAB_LIGHT_NAPHTHA_2 -1  PBAL_GASOLINE_2          1
    BL_ARAB_LIGHT_NAPHTHA_GASOLINE_2  QUAL_GASOLINE_2          330
    BL_ARAB_LIGHT_NAPHTHA_JET_2  STRM_ARAB_LIGHT_NAPHTHA_2 -1  PBAL_JET_2               1
    BL_ARAB_LIGHT_NAPHTHA_JET_2  QUAL_JET_2               -2120
    TSLACK_ARAB_LIGHT_NAPHTHA_2  COST                     -180  TSTRM_ARAB_LIGHT_NAPHTHA_2 -1
    TBL_ARAB_LIGHT_NAPHTHA_GASOLINE_2  TSTRM_ARAB_LIGHT_NAPHTHA_2 -1  PBAL_GASOLINE_2          1
    TBL_ARAB_LIGHT_NAPHTHA_GASOLINE_2  QUAL_GASOLINE_2          -34.8
    TBL_ARAB_LIGHT_NAPHTHA_JET_2  TSTRM_ARAB_LIGHT_NAPHTHA_2 -1  PBAL_JET_2               1
    TBL_ARAB_LIGHT_NAPHTHA_JET_2  QUAL_JET_2               -2484.8
    SLACK_ARAB_LIGHT_KERO_2   COST                     -180  STRM_ARAB_LIGHT_KERO_2   -1
    HDT_ARAB_LIGHT_KERO_2     COST                     -240  STRM_ARAB_LIGHT_KERO_2   -1
    HDT_ARAB_LIGHT_KERO_2     TSTRM_ARAB_LIGHT_KERO_2  1  HDTCAP_2                 1
    BL_ARAB_LIGHT_KERO_GASOLINE_2  STRM_ARAB_LIGHT_KERO_2   -1  PBAL_GASOLINE_2          1
    BL_ARAB_LIGHT_KERO_GASOLINE_2  QUAL_GASOLINE_2          2800
    BL_ARAB_LIGHT_KERO_JET_2  STRM_ARAB_LIGHT_KERO_2   -1  PBAL_JET_2               1
    BL_ARAB_LIGHT_KERO_JET_2  QUAL_JET_2               350
    BL_ARAB_LIGHT_KERO_DIESEL_P_2  STRM_ARAB_LIGHT_KERO_2   -1  PBAL_DIESEL_P_2          1
    BL_ARAB_LIGHT_KERO_DIESEL_P_2  QUAL_DIESEL_P_2          2500
    TSLACK_ARAB_LIGHT_KERO_2  COST                     -180  TSTRM_ARAB_LIGHT_KERO_2  -1
    TBL_ARAB_LIGHT_KERO_GASOLINE_2  TSTRM_ARAB_LIGHT_KERO_2  -1  PBAL_GASOLINE_2          1
    TBL_ARAB_LIGHT_KERO_GASOLINE_2  QUAL_GASOLINE_2          64
    TBL_ARAB_LIGHT_KERO_JET_2  TSTRM_ARAB_LIGHT_KERO_2  -1  PBAL_JET_2               1
    TBL_ARAB_LIGHT_KERO_JET_2  QUAL_JET_2               -2386
    TBL_ARAB_LIGHT_KERO_DIESEL_P_2  TSTRM_ARAB_LIGHT_KERO_2  -1  PBAL_DIESEL_P_2          1
    TBL_ARAB_LIGHT_KERO_DIESEL_P_2  QUAL_DIESEL_P_2          -236
    SLACK_ARAB_LIGHT_DIESEL_2  COST                     -180  STRM_ARAB_LIGHT_DIESEL_2 -1
    HDT_ARAB_LIGHT_DIESEL_2   COST                     -240  STRM_ARAB_LIGHT_DIESEL_2 -1
    HDT_ARAB_LIGHT_DIESEL_2   TSTRM_ARAB_LIGHT_DIESEL_2 1  HDTCAP_2                 1
    BL_ARAB_LIGHT_DIESEL_DIESEL_P_2  STRM_ARAB_LIGHT_DIESEL_2 -1  PBAL_DIESEL_P_2          1
    BL_ARAB_LIGHT_DIESEL_DIESEL_P_2  QUAL_DIESEL_P_2          10100
    BL_ARAB_LIGHT_DIESEL_FUELOIL_2  STRM_ARAB_LIGHT_DIESEL_2 -1  PBAL_FUELOIL_2           1
    BL_ARAB_LIGHT_DIESEL_FUELOIL_2  QUAL_FUELOIL_2           -24550
    TSLACK_ARAB_LIGHT_DIESEL_2  COST                     -180  TSTRM_ARAB_LIGHT_DIESEL_2 -1
    TBL_ARAB_LIGHT_DIESEL_DIESEL_P_2  TSTRM_ARAB_LIGHT_DIESEL_2 -1  PBAL_DIESEL_P_2          1
    TBL_ARAB_LIGHT_DIESEL_DIESEL_P_2  QUAL_DIESEL_P_2          68
    TBL_ARAB_LIGHT_DIESEL_FUELOIL_2  TSTRM_ARAB_LIGHT_DIESEL_2 -1  PBAL_FUELOIL_2           1
    TBL_ARAB_LIGHT_DIESEL_FUELOIL_2  QUAL_FUELOIL_2           -34582
    SLACK_ARAB_LIGHT_VGO_2    COST                     -180  STRM_ARAB_LIGHT_VGO_2    -1
    HDT_ARAB_LIGHT_VGO_2      COST                     -240  STRM_ARAB_LIGHT_VGO_2    -1
    HDT_ARAB_LIGHT_VGO_2      TSTRM_ARAB_LIGHT_VGO_2   1  HDTCAP_2                 1
    FCC_ARAB_LIGHT_2          COST                     -310  STRM_ARAB_LIGHT_VGO_2    -1
    FCC_ARAB_LIGHT_2          FSTRM_ARAB_LIGHT_NAPHTHA_2 0.55  FSTRM_ARAB_LIGHT_DIESEL_2 0.25
    FCC_ARAB_LIGHT_2          FCCCAP_2                 1
    BL_ARAB_LIGHT_VGO_DIESEL_P_2  STRM_ARAB_LIGHT_VGO_2    -1  PBAL_DIESEL_P_2          1
    BL_ARAB_LIGHT_VGO_DIESEL_P_2  QUAL_DIESEL_P_2          25300
    BL_ARAB_LIGHT_VGO_FUELOIL_2  STRM_ARAB_LIGHT_VGO_2    -1  PBAL_FUELOIL_2           1
    BL_ARAB_LIGHT_VGO_FUELOIL_2  QUAL_FUELOIL_2           -9350
    TSLACK_ARAB_LIGHT_VGO_2   COST                     -180  TSTRM_ARAB_LIGHT_VGO_2   -1
    TBL_ARAB_LIGHT_VGO_DIESEL_P_2  TSTRM_ARAB_LIGHT_VGO_2   -1  PBAL_DIESEL_P_2          1
    TBL_ARAB_LIGHT_VGO_DIESEL_P_2  QUAL_DIESEL_P_2          676
    TBL_ARAB_LIGHT_VGO_FUELOIL_2  TSTRM_ARAB_LIGHT_VGO_2   -1  PBAL_FUELOIL_2           1
    TBL_ARAB_LIGHT_VGO_FUELOIL_2  QUAL_FUELOIL_2           -33974
    SLACK_ARAB_LIGHT_RESIDUE_2  COST                     -180  STRM_ARAB_LIGHT_RESIDUE_2 -1
    HDT_ARAB_LIGHT_RESIDUE_2  COST                     -240  STRM_ARAB_LIGHT_RESIDUE_2 -1
    HDT_ARAB_LIGHT_RESIDUE_2  TSTRM_ARAB_LIGHT_RESIDUE_2 1  HDTCAP_2                 1
    BL_ARAB_LIGHT_RESIDUE_FUELOIL_2  STRM_ARAB_LIGHT_RESIDUE_2 -1  PBAL_FUELOIL_2           1
    BL_ARAB_LIGHT_RESIDUE_FUELOIL_2  QUAL_FUELOIL_2           14400
    TSLACK_ARAB_LIGHT_RESIDUE_2  COST                     -180  TSTRM_ARAB_LIGHT_RESIDUE_2 -1
    TBL_ARAB_LIGHT_RESIDUE_FUELOIL_2  TSTRM_ARAB_LIGHT_RESIDUE_2 -1  PBAL_FUELOIL_2           1
    TBL_ARAB_LIGHT_RESIDUE_FUELOIL_2  QUAL_FUELOIL_2           -33024
    FSLACK_ARAB_LIGHT_NAPHTHA_2  COST                     -180  FSTRM_ARAB_LIGHT_NAPHTHA_2 -1
    FBL_ARAB_LIGHT_NAPHTHA_GASOLINE_2  FSTRM_ARAB_LIGHT_NAPHTHA_2 -1  PBAL_GASOLINE_2          1
    FBL_ARAB_LIGHT_NAPHTHA_GASOLINE_2  QUAL_GASOLINE_2          83
    FBL_ARAB_LIGHT_NAPHTHA_JET_2  FSTRM_ARAB_LIGHT_NAPHTHA_2 -1  PBAL_JET_2               1
    FBL_ARAB_LIGHT_NAPHTHA_JET_2  QUAL_JET_2               -2367
    FSLACK_ARAB_LIGHT_DIESEL_2  COST                     -180  FSTRM_ARAB_LIGHT_DIESEL_2 -1
    FBL_ARAB_LIGHT_DIESEL_DIESEL_P_2  FSTRM_ARAB_LIGHT_DIESEL_2 -1  PBAL_DIESEL_P_2          1
    FBL_ARAB_LIGHT_DIESEL_DIESEL_P_2  QUAL_DIESEL_P_2          3307.5
    FBL_ARAB_LIGHT_DIESEL_FUELOIL_2  FSTRM_ARAB_LIGHT_DIESEL_2 -1  PBAL_FUELOIL_2           1
    FBL_ARAB_LIGHT_DIESEL_FUELOIL_2  QUAL_FUELOIL_2           -31342.5
    BUY_ARAB_HEAVY_2          COST                     -5980  CBAL_ARAB_HEAVY_2        1
    INVC_ARAB_HEAVY_2         COST                     -71.76  CBAL_ARAB_HEAVY_2        -1
    INVC_ARAB_HEAVY_2         CBAL_ARAB_HEAVY_3        1
    CHG_ARAB_HEAVY_2          COST                     -145  CBAL_ARAB_HEAVY_2        -1
    CHG_ARAB_HEAVY_2          CDUCAP_2                 1  STRM_ARAB_HEAVY_NAPHTHA_2 0.16
    CHG_ARAB_HEAVY_2          STRM_ARAB_HEAVY_KERO_2   0.14  STRM_ARAB_HEAVY_DIESEL_2 0.21
    CHG_ARAB_HEAVY_2          STRM_ARAB_HEAVY_VGO_2    0.25  STRM_ARAB_HEAVY_RESIDUE_2 0.24
    SLACK_ARAB_HEAVY_NAPHTHA_2  COST                     -180  STRM_ARAB_HEAVY_NAPHTHA_2 -1
    HDT_ARAB_HEAVY_NAPHTHA_2  COST                     -240  STRM_ARAB_HEAVY_NAPHTHA_2 -1
    HDT_ARAB_HEAVY_NAPHTHA_2  TSTRM_ARAB_HEAVY_NAPHTHA_2 1  HDTCAP_2                 1
    BL_ARAB_HEAVY_NAPHTHA_GASOLINE_2  STRM_ARAB_HEAVY_NAPHTHA_2 -1  PBAL_GASOLINE_2          1
    BL_ARAB_HEAVY_NAPHTHA_GASOLINE_2  QUAL_GASOLINE_2          530
    BL_ARAB_HEAVY_NAPHTHA_JET_2  STRM_ARAB_HEAVY_NAPHTHA_2 -1  PBAL_JET_2               1
    BL_ARAB_HEAVY_NAPHTHA_JET_2  QUAL_JET_2               -1920
    TSLACK_ARAB_HEAVY_NAPHTHA_2  COST                     -180  TSTRM_ARAB_HEAVY_NAPHTHA_2 -1
    TBL_ARAB_HEAVY_NAPHTHA_GASOLINE_2  TSTRM_ARAB_HEAVY_NAPHTHA_2 -1  PBAL_GASOLINE_2          1
    TBL_ARAB_HEAVY_NAPHTHA_GASOLINE_2  QUAL_GASOLINE_2          -26.8
    TBL_ARAB_HEAVY_NAPHTHA_JET_2  TSTRM_ARAB_HEAVY_NAPHTHA_2 -1  PBAL_JET_2               1
    TBL_ARAB_HEAVY_NAPHTHA_JET_2  QUAL_JET_2               -2476.8
    SLACK_ARAB_HEAVY_KERO_2   COST                     -180  STRM_ARAB_HEAVY_KERO_2   -1
    HDT_ARAB_HEAVY_KERO_2     COST                     -240  STRM_ARAB_HEAVY_KERO_2   -1
    HDT_ARAB_HEAVY_KERO_2     TSTRM_ARAB_HEAVY_KERO_2  1  HDTCAP_2                 1
    BL_ARAB_HEAVY_KERO_GASOLINE_2  STRM_ARAB_HEAVY_KERO_2   -1  PBAL_GASOLINE_2          1
    BL_ARAB_HEAVY_KERO_GASOLINE_2  QUAL_GASOLINE_2          4300
    BL_ARAB_HEAVY_KERO_JET_2  STRM_ARAB_HEAVY_KERO_2   -1  PBAL_JET_2               1
    BL_ARAB_HEAVY_KERO_JET_2  QUAL_JET_2               1850
    BL_ARAB_HEAVY_KERO_DIESEL_P_2  STRM_ARAB_HEAVY_KERO_2   -1  PBAL_DIESEL_P_2          1
    BL_ARAB_HEAVY_KERO_DIESEL_P_2  QUAL_DIESEL_P_2          4000
    TSLACK_ARAB_HEAVY_KERO_2  COST                     -180  TSTRM_ARAB_HEAVY_KERO_2  -1
    TBL_ARAB_HEAVY_KERO_GASOLINE_2  TSTRM_ARAB_HEAVY_KERO_2  -1  PBAL_GASOLINE_2          1
    TBL_ARAB_HEAVY_KERO_GASOLINE_2  QUAL_GASOLINE_2          124
    TBL_ARAB_HEAVY_KERO_JET_2  TSTRM_ARAB_HEAVY_KERO_2  -1  PBAL_JET_2               1
    TBL_ARAB_HEAVY_KERO_JET_2  QUAL_JET_2               -2326
    TBL_ARAB_HEAVY_KERO_DIESEL_P_2  TSTRM_ARAB_HEAVY_KERO_2  -1  PBAL_DIESEL_P_2          1
    TBL_ARAB_HEAVY_KERO_DIESEL_P_2  QUAL_DIESEL_P_2          -176
    SLACK_ARAB_HEAVY_DIESEL_2  COST                     -180  STRM_ARAB_HEAVY_DIESEL_2 -1
    HDT_ARAB_HEAVY_DIESEL_2   COST                     -240  STRM_ARAB_HEAVY_DIESEL_2 -1
    HDT_ARAB_HEAVY_DIESEL_2   TSTRM_ARAB_HEAVY_DIESEL_2 1  HDTCAP_2                 1
    BL_ARAB_HEAVY_DIESEL_DIESEL_P_2  STRM_ARAB_HEAVY_DIESEL_2 -1  PBAL_DIESEL_P_2          1
    BL_ARAB_HEAVY_DIESEL_DIESEL_P_2  QUAL_DIESEL_P_2          15600
    BL_ARAB_HEAVY_DIESEL_FUELOIL_2  STRM_ARAB_HEAVY_DIESEL_2 -1  PBAL_FUELOIL_2           1
    BL_ARAB_HEAVY_DIESEL_FUELOIL_2  QUAL_FUELOIL_2           -19050
    TSLACK_ARAB_HEAVY_DIESEL_2  COST                     -180  TSTRM_ARAB_HEAVY_DIESEL_2 -1
    TBL_ARAB_HEAVY_DIESEL_DIESEL_P_2  TSTRM_ARAB_HEAVY_DIESEL_2 -1  PBAL_DIESEL_P_2          1
    TBL_ARAB_HEAVY_DIESEL_DIESEL_P_2  QUAL_DIESEL_P_2          288
    TBL_ARAB_HEAVY_DIESEL_FUELOIL_2  TSTRM_ARAB_HEAVY_DIESEL_2 -1  PBAL_FUELOIL_2           1
    TBL_ARAB_HEAVY_DIESEL_FUELOIL_2  QUAL_FUELOIL_2           -34362
    SLACK_ARAB_HEAVY_VGO_2    COST                     -180  STRM_ARAB_HEAVY_VGO_2    -1
    HDT_ARAB_HEAVY_VGO_2      COST                     -240  STRM_ARAB_HEAVY_VGO_2    -1
    HDT_ARAB_HEAVY_VGO_2      TSTRM_ARAB_HEAVY_VGO_2   1  HDTCAP_2                 1
    FCC_ARAB_HEAVY_2          COST                     -310  STRM_ARAB_HEAVY_VGO_2    -1
    FCC_ARAB_HEAVY_2          FSTRM_ARAB_HEAVY_NAPHTHA_2 0.55  FSTRM_ARAB_HEAVY_DIESEL_2 0.25
    FCC_ARAB_HEAVY_2          FCCCAP_2                 1
    BL_ARAB_HEAVY_VGO_DIESEL_P_2  STRM_ARAB_HEAVY_VGO_2    -1  PBAL_DIESEL_P_2          1
    BL_ARAB_HEAVY_VGO_DIESEL_P_2  QUAL_DIESEL_P_2          38800
    BL_ARAB_HEAVY_VGO_FUELOIL_2  STRM_ARAB_HEAVY_VGO_2    -1  PBAL_FUELOIL_2           1
    BL_ARAB_HEAVY_VGO_FUELOIL_2  QUAL_FUELOIL_2           4150
    TSLACK_ARAB_HEAVY_VGO_2   COST                     -180  TSTRM_ARAB_HEAVY_VGO_2   -1
    TBL_ARAB_HEAVY_VGO_DIESEL_P_2  TSTRM_ARAB_HEAVY_VGO_2   -1  PBAL_DIESEL_P_2          1
    TBL_ARAB_HEAVY_VGO_DIESEL_P_2  QUAL_DIESEL_P_2          1216
    TBL_ARAB_HEAVY_VGO_FUELOIL_2  TSTRM_ARAB_HEAVY_VGO_2   -1  PBAL_FUELOIL_2           1
    TBL_ARAB_HEAVY_VGO_FUELOIL_2  QUAL_FUELOIL_2           -33434
    SLACK_ARAB_HEAVY_RESIDUE_2  COST                     -180  STRM_ARAB_HEAVY_RESIDUE_2 -1
    HDT_ARAB_HEAVY_RESIDUE_2  COST                     -240  STRM_ARAB_HEAVY_RESIDUE_2 -1
    HDT_ARAB_HEAVY_RESIDUE_2  TSTRM_ARAB_HEAVY_RESIDUE_2 1  HDTCAP_2                 1
    BL_ARAB_HEAVY_RESIDUE_FUELOIL_2  STRM_ARAB_HEAVY_RESIDUE_2 -1  PBAL_FUELOIL_2           1
    BL_ARAB_HEAVY_RESIDUE_FUELOIL_2  QUAL_FUELOIL_2           40400
    TSLACK_ARAB_HEAVY_RESIDUE_2  COST                     -180  TSTRM_ARAB_HEAVY_RESIDUE_2 -1
    TBL_ARAB_HEAVY_RESIDUE_FUELOIL_2  TSTRM_ARAB_HEAVY_RESIDUE_2 -1  PBAL_FUELOIL_2           1
    TBL_ARAB_HEAVY_RESIDUE_FUELOIL_2  QUAL_FUELOIL_2           -31984
    FSLACK_ARAB_HEAVY_NAPHTHA_2  COST                     -180  FSTRM_ARAB_HEAVY_NAPHTHA_2 -1
    FBL_ARAB_HEAVY_NAPHTHA_GASOLINE_2  FSTRM_ARAB_HEAVY_NAPHTHA_2 -1  PBAL_GASOLINE_2          1
    FBL_ARAB_HEAVY_NAPHTHA_GASOLINE_2  QUAL_GASOLINE_2          153
    FBL_ARAB_HEAVY_NAPHTHA_JET_2  FSTRM_ARAB_HEAVY_NAPHTHA_2 -1  PBAL_JET_2               1
    FBL_ARAB_HEAVY_NAPHTHA_JET_2  QUAL_JET_2               -2297
    FSLACK_ARAB_HEAVY_DIESEL_2  COST                     -180  FSTRM_ARAB_HEAVY_DIESEL_2 -1
    FBL_ARAB_HEAVY_DIESEL_DIESEL_P_2  FSTRM_ARAB_HEAVY_DIESEL_2 -1  PBAL_DIESEL_P_2          1
    FBL_ARAB_HEAVY_DIESEL_DIESEL_P_2  QUAL_DIESEL_P_2          5232.5
    FBL_ARAB_HEAVY_DIESEL_FUELOIL_2  FSTRM_ARAB_HEAVY_DIESEL_2 -1  PBAL_FUELOIL_2           1
    FBL_ARAB_HEAVY_DIESEL_FUELOIL_2  QUAL_FUELOIL_2           -29417.5
    BUY_BASRAH_2              COST                     -6100  CBAL_BASRAH_2            1
    INVC_BASRAH_2             COST                     -73.2  CBAL_BASRAH_2            -1
    INVC_BASRAH_2             CBAL_BASRAH_3            1
    CHG_BASRAH_2              COST                     -145  CBAL_BASRAH_2            -1
    CHG_BASRAH_2              CDUCAP_2                 1  STRM_BASRAH_NAPHTHA_2    0.18
    CHG_BASRAH_2              STRM_BASRAH_KERO_2       0.15  STRM_BASRAH_DIESEL_2     0.22
    CHG_BASRAH_2              STRM_BASRAH_VGO_2        0.24  STRM_BASRAH_RESIDUE_2    0.21
    SLACK_BASRAH_NAPHTHA_2    COST                     -180  STRM_BASRAH_NAPHTHA_2    -1
    HDT_BASRAH_NAPHTHA_2      COST                     -240  STRM_BASRAH_NAPHTHA_2    -1
    HDT_BASRAH_NAPHTHA_2      TSTRM_BASRAH_NAPHTHA_2   1  HDTCAP_2                 1
    BL_BASRAH_NAPHTHA_GASOLINE_2  STRM_BASRAH_NAPHTHA_2    -1  PBAL_GASOLINE_2          1
    BL_BASRAH_NAPHTHA_GASOLINE_2  QUAL_GASOLINE_2          440
    BL_BASRAH_NAPHTHA_JET_2   STRM_BASRAH_NAPHTHA_2    -1  PBAL_JET_2               1
    BL_BASRAH_NAPHTHA_JET_2   QUAL_JET_2               -2010
    TSLACK_BASRAH_NAPHTHA_2   COST                     -180  TSTRM_BASRAH_NAPHTHA_2   -1
    TBL_BASRAH_NAPHTHA_GASOLINE_2  TSTRM_BASRAH_NAPHTHA_2   -1  PBAL_GASOLINE_2          1
    TBL_BASRAH_NAPHTHA_GASOLINE_2  QUAL_GASOLINE_2          -30.4
    TBL_BASRAH_NAPHTHA_JET_2  TSTRM_BASRAH_NAPHTHA_2   -1  PBAL_JET_2               1
    TBL_BASRAH_NAPHTHA_JET_2  QUAL_JET_2               -2480.4
    SLACK_BASRAH_KERO_2       COST                     -180  STRM_BASRAH_KERO_2       -1
    HDT_BASRAH_KERO_2         COST                     -240  STRM_BASRAH_KERO_2       -1
    HDT_BASRAH_KERO_2         TSTRM_BASRAH_KERO_2      1  HDTCAP_2                 1
    BL_BASRAH_KERO_GASOLINE_2  STRM_BASRAH_KERO_2       -1  PBAL_GASOLINE_2          1
    BL_BASRAH_KERO_GASOLINE_2  QUAL_GASOLINE_2          3625
    BL_BASRAH_KERO_JET_2      STRM_BASRAH_KERO_2       -1  PBAL_JET_2               1
    BL_BASRAH_KERO_JET_2      QUAL_JET_2               1175
    BL_BASRAH_KERO_DIESEL_P_2  STRM_BASRAH_KERO_2       -1  PBAL_DIESEL_P_2          1
    BL_BASRAH_KERO_DIESEL_P_2  QUAL_DIESEL_P_2          3325
    TSLACK_BASRAH_KERO_2      COST                     -180  TSTRM_BASRAH_KERO_2      -1
    TBL_BASRAH_KERO_GASOLINE_2  TSTRM_BASRAH_KERO_2      -1  PBAL_GASOLINE_2          1
    TBL_BASRAH_KERO_GASOLINE_2  QUAL_GASOLINE_2          97
    TBL_BASRAH_KERO_JET_2     TSTRM_BASRAH_KERO_2      -1  PBAL_JET_2               1
    TBL_BASRAH_KERO_JET_2     QUAL_JET_2               -2353
    TBL_BASRAH_KERO_DIESEL_P_2  TSTRM_BASRAH_KERO_2      -1  PBAL_DIESEL_P_2          1
    TBL_BASRAH_KERO_DIESEL_P_2  QUAL_DIESEL_P_2          -203
    SLACK_BASRAH_DIESEL_2     COST                     -180  STRM_BASRAH_DIESEL_2     -1
    HDT_BASRAH_DIESEL_2       COST                     -240  STRM_BASRAH_DIESEL_2     -1
    HDT_BASRAH_DIESEL_2       TSTRM_BASRAH_DIESEL_2    1  HDTCAP_2                 1
    BL_BASRAH_DIESEL_DIESEL_P_2  STRM_BASRAH_DIESEL_2     -1  PBAL_DIESEL_P_2          1
    BL_BASRAH_DIESEL_DIESEL_P_2  QUAL_DIESEL_P_2          13125
    BL_BASRAH_DIESEL_FUELOIL_2  STRM_BASRAH_DIESEL_2     -1  PBAL_FUELOIL_2           1
    BL_BASRAH_DIESEL_FUELOIL_2  QUAL_FUELOIL_2           -21525
    TSLACK_BASRAH_DIESEL_2    COST                     -180  TSTRM_BASRAH_DIESEL_2    -1
    TBL_BASRAH_DIESEL_DIESEL_P_2  TSTRM_BASRAH_DIESEL_2    -1  PBAL_DIESEL_P_2          1
    TBL_BASRAH_DIESEL_DIESEL_P_2  QUAL_DIESEL_P_2          189
    TBL_BASRAH_DIESEL_FUELOIL_2  TSTRM_BASRAH_DIESEL_2    -1  PBAL_FUELOIL_2           1
    TBL_BASRAH_DIESEL_FUELOIL_2  QUAL_FUELOIL_2           -34461
    SLACK_BASRAH_VGO_2        COST                     -180  STRM_BASRAH_VGO_2        -1
    HDT_BASRAH_VGO_2          COST                     -240  STRM_BASRAH_VGO_2        -1
    HDT_BASRAH_VGO_2          TSTRM_BASRAH_VGO_2       1  HDTCAP_2                 1
    FCC_BASRAH_2              COST                     -310  STRM_BASRAH_VGO_2        -1
    FCC_BASRAH_2              FSTRM_BASRAH_NAPHTHA_2   0.55  FSTRM_BASRAH_DIESEL_2    0.25
    FCC_BASRAH_2              FCCCAP_2                 1
    BL_BASRAH_VGO_DIESEL_P_2  STRM_BASRAH_VGO_2        -1  PBAL_DIESEL_P_2          1
    BL_BASRAH_VGO_DIESEL_P_2  QUAL_DIESEL_P_2          32725
    BL_BASRAH_VGO_FUELOIL_2   STRM_BASRAH_VGO_2        -1  PBAL_FUELOIL_2           1
    BL_BASRAH_VGO_FUELOIL_2   QUAL_FUELOIL_2           -1925
    TSLACK_BASRAH_VGO_2       COST                     -180  TSTRM_BASRAH_VGO_2       -1
    TBL_BASRAH_VGO_DIESEL_P_2  TSTRM_BASRAH_VGO_2       -1  PBAL_DIESEL_P_2          1
    TBL_BASRAH_VGO_DIESEL_P_2  QUAL_DIESEL_P_2          973
    TBL_BASRAH_VGO_FUELOIL_2  TSTRM_BASRAH_VGO_2       -1  PBAL_FUELOIL_2           1
    TBL_BASRAH_VGO_FUELOIL_2  QUAL_FUELOIL_2           -33677
    SLACK_BASRAH_RESIDUE_2    COST                     -180  STRM_BASRAH_RESIDUE_2    -1
    HDT_BASRAH_RESIDUE_2      COST                     -240  STRM_BASRAH_RESIDUE_2    -1
    HDT_BASRAH_RESIDUE_2      TSTRM_BASRAH_RESIDUE_2   1  HDTCAP_2                 1
    BL_BASRAH_RESIDUE_FUELOIL_2  STRM_BASRAH_RESIDUE_2    -1  PBAL_FUELOIL_2           1
    BL_BASRAH_RESIDUE_FUELOIL_2  QUAL_FUELOIL_2           28700
    TSLACK_BASRAH_RESIDUE_2   COST                     -180  TSTRM_BASRAH_RESIDUE_2   -1
    TBL_BASRAH_RESIDUE_FUELOIL_2  TSTRM_BASRAH_RESIDUE_2   -1  PBAL_FUELOIL_2           1
    TBL_BASRAH_RESIDUE_FUELOIL_2  QUAL_FUELOIL_2           -32452
    FSLACK_BASRAH_NAPHTHA_2   COST                     -180  FSTRM_BASRAH_NAPHTHA_2   -1
    FBL_BASRAH_NAPHTHA_GASOLINE_2  FSTRM_BASRAH_NAPHTHA_2   -1  PBAL_GASOLINE_2          1
    FBL_BASRAH_NAPHTHA_GASOLINE_2  QUAL_GASOLINE_2          121.5
    FBL_BASRAH_NAPHTHA_JET_2  FSTRM_BASRAH_NAPHTHA_2   -1  PBAL_JET_2               1
    FBL_BASRAH_NAPHTHA_JET_2  QUAL_JET_2               -2328.5
    FSLACK_BASRAH_DIESEL_2    COST                     -180  FSTRM_BASRAH_DIESEL_2    -1
    FBL_BASRAH_DIESEL_DIESEL_P_2  FSTRM_BASRAH_DIESEL_2    -1  PBAL_DIESEL_P_2          1
    FBL_BASRAH_DIESEL_DIESEL_P_2  QUAL_DIESEL_P_2          4366.25
    FBL_BASRAH_DIESEL_FUELOIL_2  FSTRM_BASRAH_DIESEL_2    -1  PBAL_FUELOIL_2           1
    FBL_BASRAH_DIESEL_FUELOIL_2  QUAL_FUELOIL_2           -30283.75
    BUY_URALS_2               COST                     -6260  CBAL_URALS_2             1
    INVC_URALS_2              COST                     -75.12  CBAL_URALS_2             -1
    INVC_URALS_2              CBAL_URALS_3             1
    CHG_URALS_2               COST                     -145  CBAL_URALS_2             -1
    CHG_URALS_2               CDUCAP_2                 1  STRM_URALS_NAPHTHA_2     0.2
    CHG_URALS_2               STRM_URALS_KERO_2        0.16  STRM_URALS_DIESEL_2      0.24
    CHG_URALS_2               STRM_URALS_VGO_2         0.23  STRM_URALS_RESIDUE_2     0.17
    SLACK_URALS_NAPHTHA_2     COST                     -180  STRM_URALS_NAPHTHA_2     -1
    HDT_URALS_NAPHTHA_2       COST                     -240  STRM_URALS_NAPHTHA_2     -1
    HDT_URALS_NAPHTHA_2       TSTRM_URALS_NAPHTHA_2    1  HDTCAP_2                 1
    BL_URALS_NAPHTHA_GASOLINE_2  STRM_URALS_NAPHTHA_2     -1  PBAL_GASOLINE_2          1
    BL_URALS_NAPHTHA_GASOLINE_2  QUAL_GASOLINE_2          226
    BL_URALS_NAPHTHA_JET_2    STRM_URALS_NAPHTHA_2     -1  PBAL_JET_2               1
    BL_URALS_NAPHTHA_JET_2    QUAL_JET_2               -2224
    TSLACK_URALS_NAPHTHA_2    COST                     -180  TSTRM_URALS_NAPHTHA_2    -1
    TBL_URALS_NAPHTHA_GASOLINE_2  TSTRM_URALS_NAPHTHA_2    -1  PBAL_GASOLINE_2          1
    TBL_URALS_NAPHTHA_GASOLINE_2  QUAL_GASOLINE_2          -38.96
    TBL_URALS_NAPHTHA_JET_2   TSTRM_URALS_NAPHTHA_2    -1  PBAL_JET_2               1
    TBL_URALS_NAPHTHA_JET_2   QUAL_JET_2               -2488.96
    SLACK_URALS_KERO_2        COST                     -180  STRM_URALS_KERO_2        -1
    HDT_URALS_KERO_2          COST                     -240  STRM_URALS_KERO_2        -1
    HDT_URALS_KERO_2          TSTRM_URALS_KERO_2       1  HDTCAP_2                 1
    BL_URALS_KERO_GASOLINE_2  STRM_URALS_KERO_2        -1  PBAL_GASOLINE_2          1
    BL_URALS_KERO_GASOLINE_2  QUAL_GASOLINE_2          2020
    BL_URALS_KERO_JET_2       STRM_URALS_KERO_2        -1  PBAL_JET_2               1
    BL_URALS_KERO_JET_2       QUAL_JET_2               -430
    BL_URALS_KERO_DIESEL_P_2  STRM_URALS_KERO_2        -1  PBAL_DIESEL_P_2          1
    BL_URALS_KERO_DIESEL_P_2  QUAL_DIESEL_P_2          1720
    TSLACK_URALS_KERO_2       COST                     -180  TSTRM_URALS_KERO_2       -1
    TBL_URALS_KERO_GASOLINE_2  TSTRM_URALS_KERO_2       -1  PBAL_GASOLINE_2          1
    TBL_URALS_KERO_GASOLINE_2  QUAL_GASOLINE_2          32.8
    TBL_URALS_KERO_JET_2      TSTRM_URALS_KERO_2       -1  PBAL_JET_2               1
    TBL_URALS_KERO_JET_2      QUAL_JET_2               -2417.2
    TBL_URALS_KERO_DIESEL_P_2  TSTRM_URALS_KERO_2       -1  PBAL_DIESEL_P_2          1
    TBL_URALS_KERO_DIESEL_P_2  QUAL_DIESEL_P_2          -267.2
    SLACK_URALS_DIESEL_2      COST                     -180  STRM_URALS_DIESEL_2      -1
    HDT_URALS_DIESEL_2        COST                     -240  STRM_URALS_DIESEL_2      -1
    HDT_URALS_DIESEL_2        TSTRM_URALS_DIESEL_2     1  HDTCAP_2                 1
    BL_URALS_DIESEL_DIESEL_P_2  STRM_URALS_DIESEL_2      -1  PBAL_DIESEL_P_2          1
    BL_URALS_DIESEL_DIESEL_P_2  QUAL_DIESEL_P_2          7240
    BL_URALS_DIESEL_FUELOIL_2  STRM_URALS_DIESEL_2      -1  PBAL_FUELOIL_2           1
    BL_URALS_DIESEL_FUELOIL_2  QUAL_FUELOIL_2           -27410
    TSLACK_URALS_DIESEL_2     COST                     -180  TSTRM_URALS_DIESEL_2     -1
    TBL_URALS_DIESEL_DIESEL_P_2  TSTRM_URALS_DIESEL_2     -1  PBAL_DIESEL_P_2          1
    TBL_URALS_DIESEL_DIESEL_P_2  QUAL_DIESEL_P_2          -46.4
    TBL_URALS_DIESEL_FUELOIL_2  TSTRM_URALS_DIESEL_2     -1  PBAL_FUELOIL_2           1
    TBL_URALS_DIESEL_FUELOIL_2  QUAL_FUELOIL_2           -34696.4
    SLACK_URALS_VGO_2         COST                     -180  STRM_URALS_VGO_2         -1
    HDT_URALS_VGO_2           COST                     -240  STRM_URALS_VGO_2         -1
    HDT_URALS_VGO_2           TSTRM_URALS_VGO_2        1  HDTCAP_2                 1
    FCC_URALS_2               COST                     -310  STRM_URALS_VGO_2         -1
    FCC_URALS_2               FSTRM_URALS_NAPHTHA_2    0.55  FSTRM_URALS_DIESEL_2     0.25
    FCC_URALS_2               FCCCAP_2                 1
    BL_URALS_VGO_DIESEL_P_2   STRM_URALS_VGO_2         -1  PBAL_DIESEL_P_2          1
    BL_URALS_VGO_DIESEL_P_2   QUAL_DIESEL_P_2          18280
    BL_URALS_VGO_FUELOIL_2    STRM_URALS_VGO_2         -1  PBAL_FUELOIL_2           1
    BL_URALS_VGO_FUELOIL_2    QUAL_FUELOIL_2           -16370
    TSLACK_URALS_VGO_2        COST                     -180  TSTRM_URALS_VGO_2        -1
    TBL_URALS_VGO_DIESEL_P_2  TSTRM_URALS_VGO_2        -1  PBAL_DIESEL_P_2          1
    TBL_URALS_VGO_DIESEL_P_2  QUAL_DIESEL_P_2          395.2
    TBL_URALS_VGO_FUELOIL_2   TSTRM_URALS_VGO_2        -1  PBAL_FUELOIL_2           1
    TBL_URALS_VGO_FUELOIL_2   QUAL_FUELOIL_2           -34254.8
    SLACK_URALS_RESIDUE_2     COST                     -180  STRM_URALS_RESIDUE_2     -1
    HDT_URALS_RESIDUE_2       COST                     -240  STRM_URALS_RESIDUE_2     -1
    HDT_URALS_RESIDUE_2       TSTRM_URALS_RESIDUE_2    1  HDTCAP_2                 1
    BL_URALS_RESIDUE_FUELOIL_2  STRM_URALS_RESIDUE_2     -1  PBAL_FUELOIL_2           1
    BL_URALS_RESIDUE_FUELOIL_2  QUAL_FUELOIL_2           880
    TSLACK_URALS_RESIDUE_2    COST                     -180  TSTRM_URALS_RESIDUE_2    -1
    TBL_URALS_RESIDUE_FUELOIL_2  TSTRM_URALS_RESIDUE_2    -1  PBAL_FUELOIL_2           1
    TBL_URALS_RESIDUE_FUELOIL_2  QUAL_FUELOIL_2           -33564.8
    FSLACK_URALS_NAPHTHA_2    COST                     -180  FSTRM_URALS_NAPHTHA_2    -1
    FBL_URALS_NAPHTHA_GASOLINE_2  FSTRM_URALS_NAPHTHA_2    -1  PBAL_GASOLINE_2          1
    FBL_URALS_NAPHTHA_GASOLINE_2  QUAL_GASOLINE_2          46.6
    FBL_URALS_NAPHTHA_JET_2   FSTRM_URALS_NAPHTHA_2    -1  PBAL_JET_2               1
    FBL_URALS_NAPHTHA_JET_2   QUAL_JET_2               -2403.4
    FSLACK_URALS_DIESEL_2     COST                     -180  FSTRM_URALS_DIESEL_2     -1
    FBL_URALS_DIESEL_DIESEL_P_2  FSTRM_URALS_DIESEL_2     -1  PBAL_DIESEL_P_2          1
    FBL_URALS_DIESEL_DIESEL_P_2  QUAL_DIESEL_P_2          2306.5
    FBL_URALS_DIESEL_FUELOIL_2  FSTRM_URALS_DIESEL_2     -1  PBAL_FUELOIL_2           1
    FBL_URALS_DIESEL_FUELOIL_2  QUAL_FUELOIL_2           -32343.5
    BUY_MURBAN_2              COST                     -6980  CBAL_MURBAN_2            1
    INVC_MURBAN_2             COST                     -83.76  CBAL_MURBAN_2            -1
    INVC_MURBAN_2             CBAL_MURBAN_3            1
    CHG_MURBAN_2              COST                     -145  CBAL_MURBAN_2            -1
    CHG_MURBAN_2              CDUCAP_2                 1  STRM_MURBAN_NAPHTHA_2    0.28
    CHG_MURBAN_2              STRM_MURBAN_KERO_2       0.19  STRM_MURBAN_DIESEL_2     0.23
    CHG_MURBAN_2              STRM_MURBAN_VGO_2        0.19  STRM_MURBAN_RESIDUE_2    0.11
    SLACK_MURBAN_NAPHTHA_2    COST                     -180  STRM_MURBAN_NAPHTHA_2    -1
    HDT_MURBAN_NAPHTHA_2      COST                     -240  STRM_MURBAN_NAPHTHA_2    -1
    HDT_MURBAN_NAPHTHA_2      TSTRM_MURBAN_NAPHTHA_2   1  HDTCAP_2                 1
    BL_MURBAN_NAPHTHA_GASOLINE_2  STRM_MURBAN_NAPHTHA_2    -1  PBAL_GASOLINE_2          1
    BL_MURBAN_NAPHTHA_GASOLINE_2  QUAL_GASOLINE_2          98
    BL_MURBAN_NAPHTHA_JET_2   STRM_MURBAN_NAPHTHA_2    -1  PBAL_JET_2               1
    BL_MURBAN_NAPHTHA_JET_2   QUAL_JET_2               -2352
    TSLACK_MURBAN_NAPHTHA_2   COST                     -180  TSTRM_MURBAN_NAPHTHA_2   -1
    TBL_MURBAN_NAPHTHA_GASOLINE_2  TSTRM_MURBAN_NAPHTHA_2   -1  PBAL_GASOLINE_2          1
    TBL_MURBAN_NAPHTHA_GASOLINE_2  QUAL_GASOLINE_2          -44.08
    TBL_MURBAN_NAPHTHA_JET_2  TSTRM_MURBAN_NAPHTHA_2   -1  PBAL_JET_2               1
    TBL_MURBAN_NAPHTHA_JET_2  QUAL_JET_2               -2494.08
    SLACK_MURBAN_KERO_2       COST                     -180  STRM_MURBAN_KERO_2       -1
    HDT_MURBAN_KERO_2         COST                     -240  STRM_MURBAN_KERO_2       -1
    HDT_MURBAN_KERO_2         TSTRM_MURBAN_KERO_2      1  HDTCAP_2                 1
    BL_MURBAN_KERO_GASOLINE_2  STRM_MURBAN_KERO_2       -1  PBAL_GASOLINE_2          1
    BL_MURBAN_KERO_GASOLINE_2  QUAL_GASOLINE_2          1060
    BL_MURBAN_KERO_JET_2      STRM_MURBAN_KERO_2       -1  PBAL_JET_2               1
    BL_MURBAN_KERO_JET_2      QUAL_JET_2               -1390
    BL_MURBAN_KERO_DIESEL_P_2  STRM_MURBAN_KERO_2       -1  PBAL_DIESEL_P_2          1
    BL_MURBAN_KERO_DIESEL_P_2  QUAL_DIESEL_P_2          760
    TSLACK_MURBAN_KERO_2      COST                     -180  TSTRM_MURBAN_KERO_2      -1
    TBL_MURBAN_KERO_GASOLINE_2  TSTRM_MURBAN_KERO_2      -1  PBAL_GASOLINE_2          1
    TBL_MURBAN_KERO_GASOLINE_2  QUAL_GASOLINE_2          -5.6
    TBL_MURBAN_KERO_JET_2     TSTRM_MURBAN_KERO_2      -1  PBAL_JET_2               1
    TBL_MURBAN_KERO_JET_2     QUAL_JET_2               -2455.6
    TBL_MURBAN_KERO_DIESEL_P_2  TSTRM_MURBAN_KERO_2      -1  PBAL_DIESEL_P_2          1
    TBL_MURBAN_KERO_DIESEL_P_2  QUAL_DIESEL_P_2          -305.6
    SLACK_MURBAN_DIESEL_2     COST                     -180  STRM_MURBAN_DIESEL_2     -1
    HDT_MURBAN_DIESEL_2       COST                     -240  STRM_MURBAN_DIESEL_2     -1
    HDT_MURBAN_DIESEL_2       TSTRM_MURBAN_DIESEL_2    1  HDTCAP_2                 1
    BL_MURBAN_DIESEL_DIESEL_P_2  STRM_MURBAN_DIESEL_2     -1  PBAL_DIESEL_P_2          1
    BL_MURBAN_DIESEL_DIESEL_P_2  QUAL_DIESEL_P_2          3720
    BL_MURBAN_DIESEL_FUELOIL_2  STRM_MURBAN_DIESEL_2     -1  PBAL_FUELOIL_2           1
    BL_MURBAN_DIESEL_FUELOIL_2  QUAL_FUELOIL_2           -30930
    TSLACK_MURBAN_DIESEL_2    COST                     -180  TSTRM_MURBAN_DIESEL_2    -1
    TBL_MURBAN_DIESEL_DIESEL_P_2  TSTRM_MURBAN_DIESEL_2    -1  PBAL_DIESEL_P_2          1
    TBL_MURBAN_DIESEL_DIESEL_P_2  QUAL_DIESEL_P_2          -187.2
    TBL_MURBAN_DIESEL_FUELOIL_2  TSTRM_MURBAN_DIESEL_2    -1  PBAL_FUELOIL_2           1
    TBL_MURBAN_DIESEL_FUELOIL_2  QUAL_FUELOIL_2           -34837.2
    SLACK_MURBAN_VGO_2        COST                     -180  STRM_MURBAN_VGO_2        -1
    HDT_MURBAN_VGO_2          COST                     -240  STRM_MURBAN_VGO_2        -1
    HDT_MURBAN_VGO_2          TSTRM_MURBAN_VGO_2       1  HDTCAP_2                 1
    FCC_MURBAN_2              COST                     -310  STRM_MURBAN_VGO_2        -1
    FCC_MURBAN_2              FSTRM_MURBAN_NAPHTHA_2   0.55  FSTRM_MURBAN_DIESEL_2    0.25
    FCC_MURBAN_2              FCCCAP_2                 1
    BL_MURBAN_VGO_DIESEL_P_2  STRM_MURBAN_VGO_2        -1  PBAL_DIESEL_P_2          1
    BL_MURBAN_VGO_DIESEL_P_2  QUAL_DIESEL_P_2          9640
    BL_MURBAN_VGO_FUELOIL_2   STRM_MURBAN_VGO_2        -1  PBAL_FUELOIL_2           1
    BL_MURBAN_VGO_FUELOIL_2   QUAL_FUELOIL_2           -25010
    TSLACK_MURBAN_VGO_2       COST                     -180  TSTRM_MURBAN_VGO_2       -1
    TBL_MURBAN_VGO_DIESEL_P_2  TSTRM_MURBAN_VGO_2       -1  PBAL_DIESEL_P_2          1
    TBL_MURBAN_VGO_DIESEL_P_2  QUAL_DIESEL_P_2          49.6
    TBL_MURBAN_VGO_FUELOIL_2  TSTRM_MURBAN_VGO_2       -1  PBAL_FUELOIL_2           1
    TBL_MURBAN_VGO_FUELOIL_2  QUAL_FUELOIL_2           -34600.4
    SLACK_MURBAN_RESIDUE_2    COST                     -180  STRM_MURBAN_RESIDUE_2    -1
    HDT_MURBAN_RESIDUE_2      COST                     -240  STRM_MURBAN_RESIDUE_2    -1
    HDT_MURBAN_RESIDUE_2      TSTRM_MURBAN_RESIDUE_2   1  HDTCAP_2                 1
    BL_MURBAN_RESIDUE_FUELOIL_2  STRM_MURBAN_RESIDUE_2    -1  PBAL_FUELOIL_2           1
    BL_MURBAN_RESIDUE_FUELOIL_2  QUAL_FUELOIL_2           -15760
    TSLACK_MURBAN_RESIDUE_2   COST                     -180  TSTRM_MURBAN_RESIDUE_2   -1
    TBL_MURBAN_RESIDUE_FUELOIL_2  TSTRM_MURBAN_RESIDUE_2   -1  PBAL_FUELOIL_2           1
    TBL_MURBAN_RESIDUE_FUELOIL_2  QUAL_FUELOIL_2           -34230.4
    FSLACK_MURBAN_NAPHTHA_2   COST                     -180  FSTRM_MURBAN_NAPHTHA_2   -1
    FBL_MURBAN_NAPHTHA_GASOLINE_2  FSTRM_MURBAN_NAPHTHA_2   -1  PBAL_GASOLINE_2          1
    FBL_MURBAN_NAPHTHA_GASOLINE_2  QUAL_GASOLINE_2          1.8
    FBL_MURBAN_NAPHTHA_JET_2  FSTRM_MURBAN_NAPHTHA_2   -1  PBAL_JET_2               1
    FBL_MURBAN_NAPHTHA_JET_2  QUAL_JET_2               -2448.2
    FSLACK_MURBAN_DIESEL_2    COST                     -180  FSTRM_MURBAN_DIESEL_2    -1
    FBL_MURBAN_DIESEL_DIESEL_P_2  FSTRM_MURBAN_DIESEL_2    -1  PBAL_DIESEL_P_2          1
    FBL_MURBAN_DIESEL_DIESEL_P_2  QUAL_DIESEL_P_2          1074.5
    FBL_MURBAN_DIESEL_FUELOIL_2  FSTRM_MURBAN_DIESEL_2    -1  PBAL_FUELOIL_2           1
    FBL_MURBAN_DIESEL_FUELOIL_2  QUAL_FUELOIL_2           -33575.5
    BUY_ES_SIDER_2            COST                     -6540  CBAL_ES_SIDER_2          1
    INVC_ES_SIDER_2           COST                     -78.48  CBAL_ES_SIDER_2          -1
    INVC_ES_SIDER_2           CBAL_ES_SIDER_3          1
    CHG_ES_SIDER_2            COST                     -145  CBAL_ES_SIDER_2          -1
    CHG_ES_SIDER_2            CDUCAP_2                 1  STRM_ES_SIDER_NAPHTHA_2  0.25
    CHG_ES_SIDER_2            STRM_ES_SIDER_KERO_2     0.18  STRM_ES_SIDER_DIESEL_2   0.25
    CHG_ES_SIDER_2            STRM_ES_SIDER_VGO_2      0.2  STRM_ES_SIDER_RESIDUE_2  0.12
    SLACK_ES_SIDER_NAPHTHA_2  COST                     -180  STRM_ES_SIDER_NAPHTHA_2  -1
    HDT_ES_SIDER_NAPHTHA_2    COST                     -240  STRM_ES_SIDER_NAPHTHA_2  -1
    HDT_ES_SIDER_NAPHTHA_2    TSTRM_ES_SIDER_NAPHTHA_2 1  HDTCAP_2                 1
    BL_ES_SIDER_NAPHTHA_GASOLINE_2  STRM_ES_SIDER_NAPHTHA_2  -1  PBAL_GASOLINE_2          1
    BL_ES_SIDER_NAPHTHA_GASOLINE_2  QUAL_GASOLINE_2          32
    BL_ES_SIDER_NAPHTHA_JET_2  STRM_ES_SIDER_NAPHTHA_2  -1  PBAL_JET_2               1
    BL_ES_SIDER_NAPHTHA_JET_2  QUAL_JET_2               -2418
    TSLACK_ES_SIDER_NAPHTHA_2  COST                     -180  TSTRM_ES_SIDER_NAPHTHA_2 -1
    TBL_ES_SIDER_NAPHTHA_GASOLINE_2  TSTRM_ES_SIDER_NAPHTHA_2 -1  PBAL_GASOLINE_2          1
    TBL_ES_SIDER_NAPHTHA_GASOLINE_2  QUAL_GASOLINE_2          -46.72
    TBL_ES_SIDER_NAPHTHA_JET_2  TSTRM_ES_SIDER_NAPHTHA_2 -1  PBAL_JET_2               1
    TBL_ES_SIDER_NAPHTHA_JET_2  QUAL_JET_2               -2496.72
    SLACK_ES_SIDER_KERO_2     COST                     -180  STRM_ES_SIDER_KERO_2     -1
    HDT_ES_SIDER_KERO_2       COST                     -240  STRM_ES_SIDER_KERO_2     -1
    HDT_ES_SIDER_KERO_2       TSTRM_ES_SIDER_KERO_2    1  HDTCAP_2                 1
    BL_ES_SIDER_KERO_GASOLINE_2  STRM_ES_SIDER_KERO_2     -1  PBAL_GASOLINE_2          1
    BL_ES_SIDER_KERO_GASOLINE_2  QUAL_GASOLINE_2          565
    BL_ES_SIDER_KERO_JET_2    STRM_ES_SIDER_KERO_2     -1  PBAL_JET_2               1
    BL_ES_SIDER_KERO_JET_2    QUAL_JET_2               -1885
    BL_ES_SIDER_KERO_DIESEL_P_2  STRM_ES_SIDER_KERO_2     -1  PBAL_DIESEL_P_2          1
    BL_ES_SIDER_KERO_DIESEL_P_2  QUAL_DIESEL_P_2          265
    TSLACK_ES_SIDER_KERO_2    COST                     -180  TSTRM_ES_SIDER_KERO_2    -1
    TBL_ES_SIDER_KERO_GASOLINE_2  TSTRM_ES_SIDER_KERO_2    -1  PBAL_GASOLINE_2          1
    TBL_ES_SIDER_KERO_GASOLINE_2  QUAL_GASOLINE_2          -25.4
    TBL_ES_SIDER_KERO_JET_2   TSTRM_ES_SIDER_KERO_2    -1  PBAL_JET_2               1
    TBL_ES_SIDER_KERO_JET_2   QUAL_JET_2               -2475.4
    TBL_ES_SIDER_KERO_DIESEL_P_2  TSTRM_ES_SIDER_KERO_2    -1  PBAL_DIESEL_P_2          1
    TBL_ES_SIDER_KERO_DIESEL_P_2  QUAL_DIESEL_P_2          -325.4
    SLACK_ES_SIDER_DIESEL_2   COST                     -180  STRM_ES_SIDER_DIESEL_2   -1
    HDT_ES_SIDER_DIESEL_2     COST                     -240  STRM_ES_SIDER_DIESEL_2   -1
    HDT_ES_SIDER_DIESEL_2     TSTRM_ES_SIDER_DIESEL_2  1  HDTCAP_2                 1
    BL_ES_SIDER_DIESEL_DIESEL_P_2  STRM_ES_SIDER_DIESEL_2   -1  PBAL_DIESEL_P_2          1
    BL_ES_SIDER_DIESEL_DIESEL_P_2  QUAL_DIESEL_P_2          1905
    BL_ES_SIDER_DIESEL_FUELOIL_2  STRM_ES_SIDER_DIESEL_2   -1  PBAL_FUELOIL_2           1
    BL_ES_SIDER_DIESEL_FUELOIL_2  QUAL_FUELOIL_2           -32745
    TSLACK_ES_SIDER_DIESEL_2  COST                     -180  TSTRM_ES_SIDER_DIESEL_2  -1
    TBL_ES_SIDER_DIESEL_DIESEL_P_2  TSTRM_ES_SIDER_DIESEL_2  -1  PBAL_DIESEL_P_2          1
    TBL_ES_SIDER_DIESEL_DIESEL_P_2  QUAL_DIESEL_P_2          -259.8
    TBL_ES_SIDER_DIESEL_FUELOIL_2  TSTRM_ES_SIDER_DIESEL_2  -1  PBAL_FUELOIL_2           1
    TBL_ES_SIDER_DIESEL_FUELOIL_2  QUAL_FUELOIL_2           -34909.8
    SLACK_ES_SIDER_VGO_2      COST                     -180  STRM_ES_SIDER_VGO_2      -1
    HDT_ES_SIDER_VGO_2        COST                     -240  STRM_ES_SIDER_VGO_2      -1
    HDT_ES_SIDER_VGO_2        TSTRM_ES_SIDER_VGO_2     1  HDTCAP_2                 1
    FCC_ES_SIDER_2            COST                     -310  STRM_ES_SIDER_VGO_2      -1
    FCC_ES_SIDER_2            FSTRM_ES_SIDER_NAPHTHA_2 0.55  FSTRM_ES_SIDER_DIESEL_2  0.25
    FCC_ES_SIDER_2            FCCCAP_2                 1
    BL_ES_SIDER_VGO_DIESEL_P_2  STRM_ES_SIDER_VGO_2      -1  PBAL_DIESEL_P_2          1
    BL_ES_SIDER_VGO_DIESEL_P_2  QUAL_DIESEL_P_2          5185
    BL_ES_SIDER_VGO_FUELOIL_2  STRM_ES_SIDER_VGO_2      -1  PBAL_FUELOIL_2           1
    BL_ES_SIDER_VGO_FUELOIL_2  QUAL_FUELOIL_2           -29465
    TSLACK_ES_SIDER_VGO_2     COST                     -180  TSTRM_ES_SIDER_VGO_2     -1
    TBL_ES_SIDER_VGO_DIESEL_P_2  TSTRM_ES_SIDER_VGO_2     -1  PBAL_DIESEL_P_2          1
    TBL_ES_SIDER_VGO_DIESEL_P_2  QUAL_DIESEL_P_2          -128.6
    TBL_ES_SIDER_VGO_FUELOIL_2  TSTRM_ES_SIDER_VGO_2     -1  PBAL_FUELOIL_2           1
    TBL_ES_SIDER_VGO_FUELOIL_2  QUAL_FUELOIL_2           -34778.6
    SLACK_ES_SIDER_RESIDUE_2  COST                     -180  STRM_ES_SIDER_RESIDUE_2  -1
    HDT_ES_SIDER_RESIDUE_2    COST                     -240  STRM_ES_SIDER_RESIDUE_2  -1
    HDT_ES_SIDER_RESIDUE_2    TSTRM_ES_SIDER_RESIDUE_2 1  HDTCAP_2                 1
    BL_ES_SIDER_RESIDUE_FUELOIL_2  STRM_ES_SIDER_RESIDUE_2  -1  PBAL_FUELOIL_2           1
    BL_ES_SIDER_RESIDUE_FUELOIL_2  QUAL_FUELOIL_2           -24340
    TSLACK_ES_SIDER_RESIDUE_2  COST                     -180  TSTRM_ES_SIDER_RESIDUE_2 -1
    TBL_ES_SIDER_RESIDUE_FUELOIL_2  TSTRM_ES_SIDER_RESIDUE_2 -1  PBAL_FUELOIL_2           1
    TBL_ES_SIDER_RESIDUE_FUELOIL_2  QUAL_FUELOIL_2           -34573.6
    FSLACK_ES_SIDER_NAPHTHA_2  COST                     -180  FSTRM_ES_SIDER_NAPHTHA_2 -1
    FBL_ES_SIDER_NAPHTHA_GASOLINE_2  FSTRM_ES_SIDER_NAPHTHA_2 -1  PBAL_GASOLINE_2          1
    FBL_ES_SIDER_NAPHTHA_GASOLINE_2  QUAL_GASOLINE_2          -21.3
    FBL_ES_SIDER_NAPHTHA_JET_2  FSTRM_ES_SIDER_NAPHTHA_2 -1  PBAL_JET_2               1
    FBL_ES_SIDER_NAPHTHA_JET_2  QUAL_JET_2               -2471.3
    FSLACK_ES_SIDER_DIESEL_2  COST                     -180  FSTRM_ES_SIDER_DIESEL_2  -1
    FBL_ES_SIDER_DIESEL_DIESEL_P_2  FSTRM_ES_SIDER_DIESEL_2  -1  PBAL_DIESEL_P_2          1
    FBL_ES_SIDER_DIESEL_DIESEL_P_2  QUAL_DIESEL_P_2          439.25
    FBL_ES_SIDER_DIESEL_FUELOIL_2  FSTRM_ES_SIDER_DIESEL_2  -1  PBAL_FUELOIL_2           1
    FBL_ES_SIDER_DIESEL_FUELOIL_2  QUAL_FUELOIL_2           -34210.75
    BUY_QUA_IBOE_2            COST                     -6890  CBAL_QUA_IBOE_2          1
    INVC_QUA_IBOE_2           COST                     -82.68  CBAL_QUA_IBOE_2          -1
    INVC_QUA_IBOE_2           CBAL_QUA_IBOE_3          1
    CHG_QUA_IBOE_2            COST                     -145  CBAL_QUA_IBOE_2          -1
    CHG_QUA_IBOE_2            CDUCAP_2                 1  STRM_QUA_IBOE_NAPHTHA_2  0.27
    CHG_QUA_IBOE_2            STRM_QUA_IBOE_KERO_2     0.2  STRM_QUA_IBOE_DIESEL_2   0.25
    CHG_QUA_IBOE_2            STRM_QUA_IBOE_VGO_2      0.18  STRM_QUA_IBOE_RESIDUE_2  0.1
    SLACK_QUA_IBOE_NAPHTHA_2  COST                     -180  STRM_QUA_IBOE_NAPHTHA_2  -1
    HDT_QUA_IBOE_NAPHTHA_2    COST                     -240  STRM_QUA_IBOE_NAPHTHA_2  -1
    HDT_QUA_IBOE_NAPHTHA_2    TSTRM_QUA_IBOE_NAPHTHA_2 1  HDTCAP_2                 1
    BL_QUA_IBOE_NAPHTHA_GASOLINE_2  STRM_QUA_IBOE_NAPHTHA_2  -1  PBAL_GASOLINE_2          1
    BL_QUA_IBOE_NAPHTHA_GASOLINE_2  QUAL_GASOLINE_2          -24
    BL_QUA_IBOE_NAPHTHA_JET_2  STRM_QUA_IBOE_NAPHTHA_2  -1  PBAL_JET_2               1
    BL_QUA_IBOE_NAPHTHA_JET_2  QUAL_JET_2               -2474
    TSLACK_QUA_IBOE_NAPHTHA_2  COST                     -180  TSTRM_QUA_IBOE_NAPHTHA_2 -1
    TBL_QUA_IBOE_NAPHTHA_GASOLINE_2  TSTRM_QUA_IBOE_NAPHTHA_2 -1  PBAL_GASOLINE_2          1
    TBL_QUA_IBOE_NAPHTHA_GASOLINE_2  QUAL_GASOLINE_2          -48.96
    TBL_QUA_IBOE_NAPHTHA_JET_2  TSTRM_QUA_IBOE_NAPHTHA_2 -1  PBAL_JET_2               1
    TBL_QUA_IBOE_NAPHTHA_JET_2  QUAL_JET_2               -2498.96
    SLACK_QUA_IBOE_KERO_2     COST                     -180  STRM_QUA_IBOE_KERO_2     -1
    HDT_QUA_IBOE_KERO_2       COST                     -240  STRM_QUA_IBOE_KERO_2     -1
    HDT_QUA_IBOE_KERO_2       TSTRM_QUA_IBOE_KERO_2    1  HDTCAP_2                 1
    BL_QUA_IBOE_KERO_GASOLINE_2  STRM_QUA_IBOE_KERO_2     -1  PBAL_GASOLINE_2          1
    BL_QUA_IBOE_KERO_GASOLINE_2  QUAL_GASOLINE_2          145
    BL_QUA_IBOE_KERO_JET_2    STRM_QUA_IBOE_KERO_2     -1  PBAL_JET_2               1
    BL_QUA_IBOE_KERO_JET_2    QUAL_JET_2               -2305
    BL_QUA_IBOE_KERO_DIESEL_P_2  STRM_QUA_IBOE_KERO_2     -1  PBAL_DIESEL_P_2          1
    BL_QUA_IBOE_KERO_DIESEL_P_2  QUAL_DIESEL_P_2          -155
    TSLACK_QUA_IBOE_KERO_2    COST                     -180  TSTRM_QUA_IBOE_KERO_2    -1
    TBL_QUA_IBOE_KERO_GASOLINE_2  TSTRM_QUA_IBOE_KERO_2    -1  PBAL_GASOLINE_2          1
    TBL_QUA_IBOE_KERO_GASOLINE_2  QUAL_GASOLINE_2          -42.2
    TBL_QUA_IBOE_KERO_JET_2   TSTRM_QUA_IBOE_KERO_2    -1  PBAL_JET_2               1
    TBL_QUA_IBOE_KERO_JET_2   QUAL_JET_2               -2492.2
    TBL_QUA_IBOE_KERO_DIESEL_P_2  TSTRM_QUA_IBOE_KERO_2    -1  PBAL_DIESEL_P_2          1
    TBL_QUA_IBOE_KERO_DIESEL_P_2  QUAL_DIESEL_P_2          -342.2
    SLACK_QUA_IBOE_DIESEL_2   COST                     -180  STRM_QUA_IBOE_DIESEL_2   -1
    HDT_QUA_IBOE_DIESEL_2     COST                     -240  STRM_QUA_IBOE_DIESEL_2   -1
    HDT_QUA_IBOE_DIESEL_2     TSTRM_QUA_IBOE_DIESEL_2  1  HDTCAP_2                 1
    BL_QUA_IBOE_DIESEL_DIESEL_P_2  STRM_QUA_IBOE_DIESEL_2   -1  PBAL_DIESEL_P_2          1
    BL_QUA_IBOE_DIESEL_DIESEL_P_2  QUAL_DIESEL_P_2          365
    BL_QUA_IBOE_DIESEL_FUELOIL_2  STRM_QUA_IBOE_DIESEL_2   -1  PBAL_FUELOIL_2           1
    BL_QUA_IBOE_DIESEL_FUELOIL_2  QUAL_FUELOIL_2           -34285
    TSLACK_QUA_IBOE_DIESEL_2  COST                     -180  TSTRM_QUA_IBOE_DIESEL_2  -1
    TBL_QUA_IBOE_DIESEL_DIESEL_P_2  TSTRM_QUA_IBOE_DIESEL_2  -1  PBAL_DIESEL_P_2          1
    TBL_QUA_IBOE_DIESEL_DIESEL_P_2  QUAL_DIESEL_P_2          -321.4
    TBL_QUA_IBOE_DIESEL_FUELOIL_2  TSTRM_QUA_IBOE_DIESEL_2  -1  PBAL_FUELOIL_2           1
    TBL_QUA_IBOE_DIESEL_FUELOIL_2  QUAL_FUELOIL_2           -34971.4
    SLACK_QUA_IBOE_VGO_2      COST                     -180  STRM_QUA_IBOE_VGO_2      -1
    HDT_QUA_IBOE_VGO_2        COST                     -240  STRM_QUA_IBOE_VGO_2      -1
    HDT_QUA_IBOE_VGO_2        TSTRM_QUA_IBOE_VGO_2     1  HDTCAP_2                 1
    FCC_QUA_IBOE_2            COST                     -310  STRM_QUA_IBOE_VGO_2      -1
    FCC_QUA_IBOE_2            FSTRM_QUA_IBOE_NAPHTHA_2 0.55  FSTRM_QUA_IBOE_DIESEL_2  0.25
    FCC_QUA_IBOE_2            FCCCAP_2                 1
    BL_QUA_IBOE_VGO_DIESEL_P_2  STRM_QUA_IBOE_VGO_2      -1  PBAL_DIESEL_P_2          1
    BL_QUA_IBOE_VGO_DIESEL_P_2  QUAL_DIESEL_P_2          1405
    BL_QUA_IBOE_VGO_FUELOIL_2  STRM_QUA_IBOE_VGO_2      -1  PBAL_FUELOIL_2           1
    BL_QUA_IBOE_VGO_FUELOIL_2  QUAL_FUELOIL_2           -33245
    TSLACK_QUA_IBOE_VGO_2     COST                     -180  TSTRM_QUA_IBOE_VGO_2     -1
    TBL_QUA_IBOE_VGO_DIESEL_P_2  TSTRM_QUA_IBOE_VGO_2     -1  PBAL_DIESEL_P_2          1
    TBL_QUA_IBOE_VGO_DIESEL_P_2  QUAL_DIESEL_P_2          -279.8
    TBL_QUA_IBOE_VGO_FUELOIL_2  TSTRM_QUA_IBOE_VGO_2     -1  PBAL_FUELOIL_2           1
    TBL_QUA_IBOE_VGO_FUELOIL_2  QUAL_FUELOIL_2           -34929.8
    SLACK_QUA_IBOE_RESIDUE_2  COST                     -180  STRM_QUA_IBOE_RESIDUE_2  -1
    HDT_QUA_IBOE_RESIDUE_2    COST                     -240  STRM_QUA_IBOE_RESIDUE_2  -1
    HDT_QUA_IBOE_RESIDUE_2    TSTRM_QUA_IBOE_RESIDUE_2 1  HDTCAP_2                 1
    BL_QUA_IBOE_RESIDUE_FUELOIL_2  STRM_QUA_IBOE_RESIDUE_2  -1  PBAL_FUELOIL_2           1
    BL_QUA_IBOE_RESIDUE_FUELOIL_2  QUAL_FUELOIL_2           -31620
    TSLACK_QUA_IBOE_RESIDUE_2  COST                     -180  TSTRM_QUA_IBOE_RESIDUE_2 -1
    TBL_QUA_IBOE_RESIDUE_FUELOIL_2  TSTRM_QUA_IBOE_RESIDUE_2 -1  PBAL_FUELOIL_2           1
    TBL_QUA_IBOE_RESIDUE_FUELOIL_2  QUAL_FUELOIL_2           -34864.8
    FSLACK_QUA_IBOE_NAPHTHA_2  COST                     -180  FSTRM_QUA_IBOE_NAPHTHA_2 -1
    FBL_QUA_IBOE_NAPHTHA_GASOLINE_2  FSTRM_QUA_IBOE_NAPHTHA_2 -1  PBAL_GASOLINE_2          1
    FBL_QUA_IBOE_NAPHTHA_GASOLINE_2  QUAL_GASOLINE_2          -40.9
    FBL_QUA_IBOE_NAPHTHA_JET_2  FSTRM_QUA_IBOE_NAPHTHA_2 -1  PBAL_JET_2               1
    FBL_QUA_IBOE_NAPHTHA_JET_2  QUAL_JET_2               -2490.9
    FSLACK_QUA_IBOE_DIESEL_2  COST                     -180  FSTRM_QUA_IBOE_DIESEL_2  -1
    FBL_QUA_IBOE_DIESEL_DIESEL_P_2  FSTRM_QUA_IBOE_DIESEL_2  -1  PBAL_DIESEL_P_2          1
    FBL_QUA_IBOE_DIESEL_DIESEL_P_2  QUAL_DIESEL_P_2          -99.75
    FBL_QUA_IBOE_DIESEL_FUELOIL_2  FSTRM_QUA_IBOE_DIESEL_2  -1  PBAL_FUELOIL_2           1
    FBL_QUA_IBOE_DIESEL_FUELOIL_2  QUAL_FUELOIL_2           -34749.75
    SELL_GASOLINE_2           COST                     9250  PBAL_GASOLINE_2          -1
    SELL_JET_2                COST                     8900  PBAL_JET_2               -1
    SELL_DIESEL_P_2           COST                     8600  PBAL_DIESEL_P_2          -1
    SELL_FUELOIL_2            COST                     4900  PBAL_FUELOIL_2           -1
    BUY_BOMBAY_HIGH_3         COST                     -6850  CBAL_BOMBAY_HIGH_3       1
    INVC_BOMBAY_HIGH_3        COST                     -82.2  CBAL_BOMBAY_HIGH_3       -1
    INVC_BOMBAY_HIGH_3        CBAL_BOMBAY_HIGH_4       1
    CHG_BOMBAY_HIGH_3         COST                     -145  CBAL_BOMBAY_HIGH_3       -1
    CHG_BOMBAY_HIGH_3         CDUCAP_3                 1  STRM_BOMBAY_HIGH_NAPHTHA_3 0.26
    CHG_BOMBAY_HIGH_3         STRM_BOMBAY_HIGH_KERO_3  0.18  STRM_BOMBAY_HIGH_DIESEL_3 0.24
    CHG_BOMBAY_HIGH_3         STRM_BOMBAY_HIGH_VGO_3   0.2  STRM_BOMBAY_HIGH_RESIDUE_3 0.12
    SLACK_BOMBAY_HIGH_NAPHTHA_3  COST                     -180  STRM_BOMBAY_HIGH_NAPHTHA_3 -1
    HDT_BOMBAY_HIGH_NAPHTHA_3  COST                     -240  STRM_BOMBAY_HIGH_NAPHTHA_3 -1
    HDT_BOMBAY_HIGH_NAPHTHA_3  TSTRM_BOMBAY_HIGH_NAPHTHA_3 1  HDTCAP_3                 1
    BL_BOMBAY_HIGH_NAPHTHA_GASOLINE_3  STRM_BOMBAY_HIGH_NAPHTHA_3 -1  PBAL_GASOLINE_3          1
    BL_BOMBAY_HIGH_NAPHTHA_GASOLINE_3  QUAL_GASOLINE_3          -32
    BL_BOMBAY_HIGH_NAPHTHA_JET_3  STRM_BOMBAY_HIGH_NAPHTHA_3 -1  PBAL_JET_3               1
    BL_BOMBAY_HIGH_NAPHTHA_JET_3  QUAL_JET_3               -2482
    TSLACK_BOMBAY_HIGH_NAPHTHA_3  COST                     -180  TSTRM_BOMBAY_HIGH_NAPHTHA_3 -1
    TBL_BOMBAY_HIGH_NAPHTHA_GASOLINE_3  TSTRM_BOMBAY_HIGH_NAPHTHA_3 -1  PBAL_GASOLINE_3          1
    TBL_BOMBAY_HIGH_NAPHTHA_GASOLINE_3  QUAL_GASOLINE_3          -49.28
    TBL_BOMBAY_HIGH_NAPHTHA_JET_3  TSTRM_BOMBAY_HIGH_NAPHTHA_3 -1  PBAL_JET_3               1
    TBL_BOMBAY_HIGH_NAPHTHA_JET_3  QUAL_JET_3               -2499.28
    SLACK_BOMBAY_HIGH_KERO_3  COST                     -180  STRM_BOMBAY_HIGH_KERO_3  -1
    HDT_BOMBAY_HIGH_KERO_3    COST                     -240  STRM_BOMBAY_HIGH_KERO_3  -1
    HDT_BOMBAY_HIGH_KERO_3    TSTRM_BOMBAY_HIGH_KERO_3 1  HDTCAP_3                 1
    BL_BOMBAY_HIGH_KERO_GASOLINE_3  STRM_BOMBAY_HIGH_KERO_3  -1  PBAL_GASOLINE_3          1
    BL_BOMBAY_HIGH_KERO_GASOLINE_3  QUAL_GASOLINE_3          85
    BL_BOMBAY_HIGH_KERO_JET_3  STRM_BOMBAY_HIGH_KERO_3  -1  PBAL_JET_3               1
    BL_BOMBAY_HIGH_KERO_JET_3  QUAL_JET_3               -2365
    BL_BOMBAY_HIGH_KERO_DIESEL_P_3  STRM_BOMBAY_HIGH_KERO_3  -1  PBAL_DIESEL_P_3          1
    BL_BOMBAY_HIGH_KERO_DIESEL_P_3  QUAL_DIESEL_P_3          -215
    TSLACK_BOMBAY_HIGH_KERO_3  COST                     -180  TSTRM_BOMBAY_HIGH_KERO_3 -1
    TBL_BOMBAY_HIGH_KERO_GASOLINE_3  TSTRM_BOMBAY_HIGH_KERO_3 -1  PBAL_GASOLINE_3          1
    TBL_BOMBAY_HIGH_KERO_GASOLINE_3  QUAL_GASOLINE_3          -44.6
    TBL_BOMBAY_HIGH_KERO_JET_3  TSTRM_BOMBAY_HIGH_KERO_3 -1  PBAL_JET_3               1
    TBL_BOMBAY_HIGH_KERO_JET_3  QUAL_JET_3               -2494.6
    TBL_BOMBAY_HIGH_KERO_DIESEL_P_3  TSTRM_BOMBAY_HIGH_KERO_3 -1  PBAL_DIESEL_P_3          1
    TBL_BOMBAY_HIGH_KERO_DIESEL_P_3  QUAL_DIESEL_P_3          -344.6
    SLACK_BOMBAY_HIGH_DIESEL_3  COST                     -180  STRM_BOMBAY_HIGH_DIESEL_3 -1
    HDT_BOMBAY_HIGH_DIESEL_3  COST                     -240  STRM_BOMBAY_HIGH_DIESEL_3 -1
    HDT_BOMBAY_HIGH_DIESEL_3  TSTRM_BOMBAY_HIGH_DIESEL_3 1  HDTCAP_3                 1
    BL_BOMBAY_HIGH_DIESEL_DIESEL_P_3  STRM_BOMBAY_HIGH_DIESEL_3 -1  PBAL_DIESEL_P_3          1
    BL_BOMBAY_HIGH_DIESEL_DIESEL_P_3  QUAL_DIESEL_P_3          145
    BL_BOMBAY_HIGH_DIESEL_FUELOIL_3  STRM_BOMBAY_HIGH_DIESEL_3 -1  PBAL_FUELOIL_3           1
    BL_BOMBAY_HIGH_DIESEL_FUELOIL_3  QUAL_FUELOIL_3           -34505
    TSLACK_BOMBAY_HIGH_DIESEL_3  COST                     -180  TSTRM_BOMBAY_HIGH_DIESEL_3 -1
    TBL_BOMBAY_HIGH_DIESEL_DIESEL_P_3  TSTRM_BOMBAY_HIGH_DIESEL_3 -1  PBAL_DIESEL_P_3          1
    TBL_BOMBAY_HIGH_DIESEL_DIESEL_P_3  QUAL_DIESEL_P_3          -330.2
    TBL_BOMBAY_HIGH_DIESEL_FUELOIL_3  TSTRM_BOMBAY_HIGH_DIESEL_3 -1  PBAL_FUELOIL_3           1
    TBL_BOMBAY_HIGH_DIESEL_FUELOIL_3  QUAL_FUELOIL_3           -34980.2
    SLACK_BOMBAY_HIGH_VGO_3   COST                     -180  STRM_BOMBAY_HIGH_VGO_3   -1
    HDT_BOMBAY_HIGH_VGO_3     COST                     -240  STRM_BOMBAY_HIGH_VGO_3   -1
    HDT_BOMBAY_HIGH_VGO_3     TSTRM_BOMBAY_HIGH_VGO_3  1  HDTCAP_3                 1
    FCC_BOMBAY_HIGH_3         COST                     -310  STRM_BOMBAY_HIGH_VGO_3   -1
    FCC_BOMBAY_HIGH_3         FSTRM_BOMBAY_HIGH_NAPHTHA_3 0.55  FSTRM_BOMBAY_HIGH_DIESEL_3 0.25
    FCC_BOMBAY_HIGH_3         FCCCAP_3                 1
    BL_BOMBAY_HIGH_VGO_DIESEL_P_3  STRM_BOMBAY_HIGH_VGO_3   -1  PBAL_DIESEL_P_3          1
    BL_BOMBAY_HIGH_VGO_DIESEL_P_3  QUAL_DIESEL_P_3          865
    BL_BOMBAY_HIGH_VGO_FUELOIL_3  STRM_BOMBAY_HIGH_VGO_3   -1  PBAL_FUELOIL_3           1
    BL_BOMBAY_HIGH_VGO_FUELOIL_3  QUAL_FUELOIL_3           -33785
    TSLACK_BOMBAY_HIGH_VGO_3  COST                     -180  TSTRM_BOMBAY_HIGH_VGO_3  -1
    TBL_BOMBAY_HIGH_VGO_DIESEL_P_3  TSTRM_BOMBAY_HIGH_VGO_3  -1  PBAL_DIESEL_P_3          1
    TBL_BOMBAY_HIGH_VGO_DIESEL_P_3  QUAL_DIESEL_P_3          -301.4
    TBL_BOMBAY_HIGH_VGO_FUELOIL_3  TSTRM_BOMBAY_HIGH_VGO_3  -1  PBAL_FUELOIL_3           1
    TBL_BOMBAY_HIGH_VGO_FUELOIL_3  QUAL_FUELOIL_3           -34951.4
    SLACK_BOMBAY_HIGH_RESIDUE_3  COST                     -180  STRM_BOMBAY_HIGH_RESIDUE_3 -1
    HDT_BOMBAY_HIGH_RESIDUE_3  COST                     -240  STRM_BOMBAY_HIGH_RESIDUE_3 -1
    HDT_BOMBAY_HIGH_RESIDUE_3  TSTRM_BOMBAY_HIGH_RESIDUE_3 1  HDTCAP_3                 1
    BL_BOMBAY_HIGH_RESIDUE_FUELOIL_3  STRM_BOMBAY_HIGH_RESIDUE_3 -1  PBAL_FUELOIL_3           1
    BL_BOMBAY_HIGH_RESIDUE_FUELOIL_3  QUAL_FUELOIL_3           -32660
    TSLACK_BOMBAY_HIGH_RESIDUE_3  COST                     -180  TSTRM_BOMBAY_HIGH_RESIDUE_3 -1
    TBL_BOMBAY_HIGH_RESIDUE_FUELOIL_3  TSTRM_BOMBAY_HIGH_RESIDUE_3 -1  PBAL_FUELOIL_3           1
    TBL_BOMBAY_HIGH_RESIDUE_FUELOIL_3  QUAL_FUELOIL_3           -34906.4
    FSLACK_BOMBAY_HIGH_NAPHTHA_3  COST                     -180  FSTRM_BOMBAY_HIGH_NAPHTHA_3 -1
    FBL_BOMBAY_HIGH_NAPHTHA_GASOLINE_3  FSTRM_BOMBAY_HIGH_NAPHTHA_3 -1  PBAL_GASOLINE_3          1
    FBL_BOMBAY_HIGH_NAPHTHA_GASOLINE_3  QUAL_GASOLINE_3          -43.7
    FBL_BOMBAY_HIGH_NAPHTHA_JET_3  FSTRM_BOMBAY_HIGH_NAPHTHA_3 -1  PBAL_JET_3               1
    FBL_BOMBAY_HIGH_NAPHTHA_JET_3  QUAL_JET_3               -2493.7
    FSLACK_BOMBAY_HIGH_DIESEL_3  COST                     -180  FSTRM_BOMBAY_HIGH_DIESEL_3 -1
    FBL_BOMBAY_HIGH_DIESEL_DIESEL_P_3  FSTRM_BOMBAY_HIGH_DIESEL_3 -1  PBAL_DIESEL_P_3          1
    FBL_BOMBAY_HIGH_DIESEL_DIESEL_P_3  QUAL_DIESEL_P_3          -176.75
    FBL_BOMBAY_HIGH_DIESEL_FUELOIL_3  FSTRM_BOMBAY_HIGH_DIESEL_3 -1  PBAL_FUELOIL_3           1
    FBL_BOMBAY_HIGH_DIESEL_FUELOIL_3  QUAL_FUELOIL_3           -34826.75
    BUY_ARAB_LIGHT_3          COST                     -6420  CBAL_ARAB_LIGHT_3        1
    INVC_ARAB_LIGHT_3         COST                     -77.04  CBAL_ARAB_LIGHT_3        -1
    INVC_ARAB_LIGHT_3         CBAL_ARAB_LIGHT_4        1
    CHG_ARAB_LIGHT_3          COST                     -145  CBAL_ARAB_LIGHT_3        -1
    CHG_ARAB_LIGHT_3          CDUCAP_3                 1  STRM_ARAB_LIGHT_NAPHTHA_3 0.22
    CHG_ARAB_LIGHT_3          STRM_ARAB_LIGHT_KERO_3   0.17  STRM_ARAB_LIGHT_DIESEL_3 0.23
    CHG_ARAB_LIGHT_3          STRM_ARAB_LIGHT_VGO_3    0.22  STRM_ARAB_LIGHT_RESIDUE_3 0.16
    SLACK_ARAB_LIGHT_NAPHTHA_3  COST                     -180  STRM_ARAB_LIGHT_NAPHTHA_3 -1
    HDT_ARAB_LIGHT_NAPHTHA_3  COST                     -240  STRM_ARAB_LIGHT_NAPHTHA_3 -1
    HDT_ARAB_LIGHT_NAPHTHA_3  TSTRM_ARAB_LIGHT_NAPHTHA_3 1  HDTCAP_3                 1
    BL_ARAB_LIGHT_NAPHTHA_GASOLINE_3  STRM_ARAB_LIGHT_NAPHTHA_3 -1  PBAL_GASOLINE_3          1
    BL_ARAB_LIGHT_NAPHTHA_GASOLINE_3  QUAL_GASOLINE_3          330
    BL_ARAB_LIGHT_NAPHTHA_JET_3  STRM_ARAB_LIGHT_NAPHTHA_3 -1  PBAL_JET_3               1
    BL_ARAB_LIGHT_NAPHTHA_JET_3  QUAL_JET_3               -2120
    TSLACK_ARAB_LIGHT_NAPHTHA_3  COST                     -180  TSTRM_ARAB_LIGHT_NAPHTHA_3 -1
    TBL_ARAB_LIGHT_NAPHTHA_GASOLINE_3  TSTRM_ARAB_LIGHT_NAPHTHA_3 -1  PBAL_GASOLINE_3          1
    TBL_ARAB_LIGHT_NAPHTHA_GASOLINE_3  QUAL_GASOLINE_3          -34.8
    TBL_ARAB_LIGHT_NAPHTHA_JET_3  TSTRM_ARAB_LIGHT_NAPHTHA_3 -1  PBAL_JET_3               1
    TBL_ARAB_LIGHT_NAPHTHA_JET_3  QUAL_JET_3               -2484.8
    SLACK_ARAB_LIGHT_KERO_3   COST                     -180  STRM_ARAB_LIGHT_KERO_3   -1
    HDT_ARAB_LIGHT_KERO_3     COST                     -240  STRM_ARAB_LIGHT_KERO_3   -1
    HDT_ARAB_LIGHT_KERO_3     TSTRM_ARAB_LIGHT_KERO_3  1  HDTCAP_3                 1
    BL_ARAB_LIGHT_KERO_GASOLINE_3  STRM_ARAB_LIGHT_KERO_3   -1  PBAL_GASOLINE_3          1
    BL_ARAB_LIGHT_KERO_GASOLINE_3  QUAL_GASOLINE_3          2800
    BL_ARAB_LIGHT_KERO_JET_3  STRM_ARAB_LIGHT_KERO_3   -1  PBAL_JET_3               1
    BL_ARAB_LIGHT_KERO_JET_3  QUAL_JET_3               350
    BL_ARAB_LIGHT_KERO_DIESEL_P_3  STRM_ARAB_LIGHT_KERO_3   -1  PBAL_DIESEL_P_3          1
    BL_ARAB_LIGHT_KERO_DIESEL_P_3  QUAL_DIESEL_P_3          2500
    TSLACK_ARAB_LIGHT_KERO_3  COST                     -180  TSTRM_ARAB_LIGHT_KERO_3  -1
    TBL_ARAB_LIGHT_KERO_GASOLINE_3  TSTRM_ARAB_LIGHT_KERO_3  -1  PBAL_GASOLINE_3          1
    TBL_ARAB_LIGHT_KERO_GASOLINE_3  QUAL_GASOLINE_3          64
    TBL_ARAB_LIGHT_KERO_JET_3  TSTRM_ARAB_LIGHT_KERO_3  -1  PBAL_JET_3               1
    TBL_ARAB_LIGHT_KERO_JET_3  QUAL_JET_3               -2386
    TBL_ARAB_LIGHT_KERO_DIESEL_P_3  TSTRM_ARAB_LIGHT_KERO_3  -1  PBAL_DIESEL_P_3          1
    TBL_ARAB_LIGHT_KERO_DIESEL_P_3  QUAL_DIESEL_P_3          -236
    SLACK_ARAB_LIGHT_DIESEL_3  COST                     -180  STRM_ARAB_LIGHT_DIESEL_3 -1
    HDT_ARAB_LIGHT_DIESEL_3   COST                     -240  STRM_ARAB_LIGHT_DIESEL_3 -1
    HDT_ARAB_LIGHT_DIESEL_3   TSTRM_ARAB_LIGHT_DIESEL_3 1  HDTCAP_3                 1
    BL_ARAB_LIGHT_DIESEL_DIESEL_P_3  STRM_ARAB_LIGHT_DIESEL_3 -1  PBAL_DIESEL_P_3          1
    BL_ARAB_LIGHT_DIESEL_DIESEL_P_3  QUAL_DIESEL_P_3          10100
    BL_ARAB_LIGHT_DIESEL_FUELOIL_3  STRM_ARAB_LIGHT_DIESEL_3 -1  PBAL_FUELOIL_3           1
    BL_ARAB_LIGHT_DIESEL_FUELOIL_3  QUAL_FUELOIL_3           -24550
    TSLACK_ARAB_LIGHT_DIESEL_3  COST                     -180  TSTRM_ARAB_LIGHT_DIESEL_3 -1
    TBL_ARAB_LIGHT_DIESEL_DIESEL_P_3  TSTRM_ARAB_LIGHT_DIESEL_3 -1  PBAL_DIESEL_P_3          1
    TBL_ARAB_LIGHT_DIESEL_DIESEL_P_3  QUAL_DIESEL_P_3          68
    TBL_ARAB_LIGHT_DIESEL_FUELOIL_3  TSTRM_ARAB_LIGHT_DIESEL_3 -1  PBAL_FUELOIL_3           1
    TBL_ARAB_LIGHT_DIESEL_FUELOIL_3  QUAL_FUELOIL_3           -34582
    SLACK_ARAB_LIGHT_VGO_3    COST                     -180  STRM_ARAB_LIGHT_VGO_3    -1
    HDT_ARAB_LIGHT_VGO_3      COST                     -240  STRM_ARAB_LIGHT_VGO_3    -1
    HDT_ARAB_LIGHT_VGO_3      TSTRM_ARAB_LIGHT_VGO_3   1  HDTCAP_3                 1
    FCC_ARAB_LIGHT_3          COST                     -310  STRM_ARAB_LIGHT_VGO_3    -1
    FCC_ARAB_LIGHT_3          FSTRM_ARAB_LIGHT_NAPHTHA_3 0.55  FSTRM_ARAB_LIGHT_DIESEL_3 0.25
    FCC_ARAB_LIGHT_3          FCCCAP_3                 1
    BL_ARAB_LIGHT_VGO_DIESEL_P_3  STRM_ARAB_LIGHT_VGO_3    -1  PBAL_DIESEL_P_3          1
    BL_ARAB_LIGHT_VGO_DIESEL_P_3  QUAL_DIESEL_P_3          25300
    BL_ARAB_LIGHT_VGO_FUELOIL_3  STRM_ARAB_LIGHT_VGO_3    -1  PBAL_FUELOIL_3           1
    BL_ARAB_LIGHT_VGO_FUELOIL_3  QUAL_FUELOIL_3           -9350
    TSLACK_ARAB_LIGHT_VGO_3   COST                     -180  TSTRM_ARAB_LIGHT_VGO_3   -1
    TBL_ARAB_LIGHT_VGO_DIESEL_P_3  TSTRM_ARAB_LIGHT_VGO_3   -1  PBAL_DIESEL_P_3          1
    TBL_ARAB_LIGHT_VGO_DIESEL_P_3  QUAL_DIESEL_P_3          676
    TBL_ARAB_LIGHT_VGO_FUELOIL_3  TSTRM_ARAB_LIGHT_VGO_3   -1  PBAL_FUELOIL_3           1
    TBL_ARAB_LIGHT_VGO_FUELOIL_3  QUAL_FUELOIL_3           -33974
    SLACK_ARAB_LIGHT_RESIDUE_3  COST                     -180  STRM_ARAB_LIGHT_RESIDUE_3 -1
    HDT_ARAB_LIGHT_RESIDUE_3  COST                     -240  STRM_ARAB_LIGHT_RESIDUE_3 -1
    HDT_ARAB_LIGHT_RESIDUE_3  TSTRM_ARAB_LIGHT_RESIDUE_3 1  HDTCAP_3                 1
    BL_ARAB_LIGHT_RESIDUE_FUELOIL_3  STRM_ARAB_LIGHT_RESIDUE_3 -1  PBAL_FUELOIL_3           1
    BL_ARAB_LIGHT_RESIDUE_FUELOIL_3  QUAL_FUELOIL_3           14400
    TSLACK_ARAB_LIGHT_RESIDUE_3  COST                     -180  TSTRM_ARAB_LIGHT_RESIDUE_3 -1
    TBL_ARAB_LIGHT_RESIDUE_FUELOIL_3  TSTRM_ARAB_LIGHT_RESIDUE_3 -1  PBAL_FUELOIL_3           1
    TBL_ARAB_LIGHT_RESIDUE_FUELOIL_3  QUAL_FUELOIL_3           -33024
    FSLACK_ARAB_LIGHT_NAPHTHA_3  COST                     -180  FSTRM_ARAB_LIGHT_NAPHTHA_3 -1
    FBL_ARAB_LIGHT_NAPHTHA_GASOLINE_3  FSTRM_ARAB_LIGHT_NAPHTHA_3 -1  PBAL_GASOLINE_3          1
    FBL_ARAB_LIGHT_NAPHTHA_GASOLINE_3  QUAL_GASOLINE_3          83
    FBL_ARAB_LIGHT_NAPHTHA_JET_3  FSTRM_ARAB_LIGHT_NAPHTHA_3 -1  PBAL_JET_3               1
    FBL_ARAB_LIGHT_NAPHTHA_JET_3  QUAL_JET_3               -2367
    FSLACK_ARAB_LIGHT_DIESEL_3  COST                     -180  FSTRM_ARAB_LIGHT_DIESEL_3 -1
    FBL_ARAB_LIGHT_DIESEL_DIESEL_P_3  FSTRM_ARAB_LIGHT_DIESEL_3 -1  PBAL_DIESEL_P_3          1
    FBL_ARAB_LIGHT_DIESEL_DIESEL_P_3  QUAL_DIESEL_P_3          3307.5
    FBL_ARAB_LIGHT_DIESEL_FUELOIL_3  FSTRM_ARAB_LIGHT_DIESEL_3 -1  PBAL_FUELOIL_3           1
    FBL_ARAB_LIGHT_DIESEL_FUELOIL_3  QUAL_FUELOIL_3           -31342.5
    BUY_ARAB_HEAVY_3          COST                     -5980  CBAL_ARAB_HEAVY_3        1
    INVC_ARAB_HEAVY_3         COST                     -71.76  CBAL_ARAB_HEAVY_3        -1
    INVC_ARAB_HEAVY_3         CBAL_ARAB_HEAVY_4        1
    CHG_ARAB_HEAVY_3          COST                     -145  CBAL_ARAB_HEAVY_3        -1
    CHG_ARAB_HEAVY_3          CDUCAP_3                 1  STRM_ARAB_HEAVY_NAPHTHA_3 0.16
    CHG_ARAB_HEAVY_3          STRM_ARAB_HEAVY_KERO_3   0.14  STRM_ARAB_HEAVY_DIESEL_3 0.21
    CHG_ARAB_HEAVY_3          STRM_ARAB_HEAVY_VGO_3    0.25  STRM_ARAB_HEAVY_RESIDUE_3 0.24
    SLACK_ARAB_HEAVY_NAPHTHA_3  COST                     -180  STRM_ARAB_HEAVY_NAPHTHA_3 -1
    HDT_ARAB_HEAVY_NAPHTHA_3  COST                     -240  STRM_ARAB_HEAVY_NAPHTHA_3 -1
    HDT_ARAB_HEAVY_NAPHTHA_3  TSTRM_ARAB_HEAVY_NAPHTHA_3 1  HDTCAP_3                 1
    BL_ARAB_HEAVY_NAPHTHA_GASOLINE_3  STRM_ARAB_HEAVY_NAPHTHA_3 -1  PBAL_GASOLINE_3          1
    BL_ARAB_HEAVY_NAPHTHA_GASOLINE_3  QUAL_GASOLINE_3          530
    BL_ARAB_HEAVY_NAPHTHA_JET_3  STRM_ARAB_HEAVY_NAPHTHA_3 -1  PBAL_JET_3               1
    BL_ARAB_HEAVY_NAPHTHA_JET_3  QUAL_JET_3               -1920
    TSLACK_ARAB_HEAVY_NAPHTHA_3  COST                     -180  TSTRM_ARAB_HEAVY_NAPHTHA_3 -1
    TBL_ARAB_HEAVY_NAPHTHA_GASOLINE_3  TSTRM_ARAB_HEAVY_NAPHTHA_3 -1  PBAL_GASOLINE_3          1
    TBL_ARAB_HEAVY_NAPHTHA_GASOLINE_3  QUAL_GASOLINE_3          -26.8
    TBL_ARAB_HEAVY_NAPHTHA_JET_3  TSTRM_ARAB_HEAVY_NAPHTHA_3 -1  PBAL_JET_3               1
    TBL_ARAB_HEAVY_NAPHTHA_JET_3  QUAL_JET_3               -2476.8
    SLACK_ARAB_HEAVY_KERO_3   COST                     -180  STRM_ARAB_HEAVY_KERO_3   -1
    HDT_ARAB_HEAVY_KERO_3     COST                     -240  STRM_ARAB_HEAVY_KERO_3   -1
    HDT_ARAB_HEAVY_KERO_3     TSTRM_ARAB_HEAVY_KERO_3  1  HDTCAP_3                 1
    BL_ARAB_HEAVY_KERO_GASOLINE_3  STRM_ARAB_HEAVY_KERO_3   -1  PBAL_GASOLINE_3          1
    BL_ARAB_HEAVY_KERO_GASOLINE_3  QUAL_GASOLINE_3          4300
    BL_ARAB_HEAVY_KERO_JET_3  STRM_ARAB_HEAVY_KERO_3   -1  PBAL_JET_3               1
    BL_ARAB_HEAVY_KERO_JET_3  QUAL_JET_3               1850
    BL_ARAB_HEAVY_KERO_DIESEL_P_3  STRM_ARAB_HEAVY_KERO_3   -1  PBAL_DIESEL_P_3          1
    BL_ARAB_HEAVY_KERO_DIESEL_P_3  QUAL_DIESEL_P_3          4000
    TSLACK_ARAB_HEAVY_KERO_3  COST                     -180  TSTRM_ARAB_HEAVY_KERO_3  -1
    TBL_ARAB_HEAVY_KERO_GASOLINE_3  TSTRM_ARAB_HEAVY_KERO_3  -1  PBAL_GASOLINE_3          1
    TBL_ARAB_HEAVY_KERO_GASOLINE_3  QUAL_GASOLINE_3          124
    TBL_ARAB_HEAVY_KERO_JET_3  TSTRM_ARAB_HEAVY_KERO_3  -1  PBAL_JET_3               1
    TBL_ARAB_HEAVY_KERO_JET_3  QUAL_JET_3               -2326
    TBL_ARAB_HEAVY_KERO_DIESEL_P_3  TSTRM_ARAB_HEAVY_KERO_3  -1  PBAL_DIESEL_P_3          1
    TBL_ARAB_HEAVY_KERO_DIESEL_P_3  QUAL_DIESEL_P_3          -176
    SLACK_ARAB_HEAVY_DIESEL_3  COST                     -180  STRM_ARAB_HEAVY_DIESEL_3 -1
    HDT_ARAB_HEAVY_DIESEL_3   COST                     -240  STRM_ARAB_HEAVY_DIESEL_3 -1
    HDT_ARAB_HEAVY_DIESEL_3   TSTRM_ARAB_HEAVY_DIESEL_3 1  HDTCAP_3                 1
    BL_ARAB_HEAVY_DIESEL_DIESEL_P_3  STRM_ARAB_HEAVY_DIESEL_3 -1  PBAL_DIESEL_P_3          1
    BL_ARAB_HEAVY_DIESEL_DIESEL_P_3  QUAL_DIESEL_P_3          15600
    BL_ARAB_HEAVY_DIESEL_FUELOIL_3  STRM_ARAB_HEAVY_DIESEL_3 -1  PBAL_FUELOIL_3           1
    BL_ARAB_HEAVY_DIESEL_FUELOIL_3  QUAL_FUELOIL_3           -19050
    TSLACK_ARAB_HEAVY_DIESEL_3  COST                     -180  TSTRM_ARAB_HEAVY_DIESEL_3 -1
    TBL_ARAB_HEAVY_DIESEL_DIESEL_P_3  TSTRM_ARAB_HEAVY_DIESEL_3 -1  PBAL_DIESEL_P_3          1
    TBL_ARAB_HEAVY_DIESEL_DIESEL_P_3  QUAL_DIESEL_P_3          288
    TBL_ARAB_HEAVY_DIESEL_FUELOIL_3  TSTRM_ARAB_HEAVY_DIESEL_3 -1  PBAL_FUELOIL_3           1
    TBL_ARAB_HEAVY_DIESEL_FUELOIL_3  QUAL_FUELOIL_3           -34362
    SLACK_ARAB_HEAVY_VGO_3    COST                     -180  STRM_ARAB_HEAVY_VGO_3    -1
    HDT_ARAB_HEAVY_VGO_3      COST                     -240  STRM_ARAB_HEAVY_VGO_3    -1
    HDT_ARAB_HEAVY_VGO_3      TSTRM_ARAB_HEAVY_VGO_3   1  HDTCAP_3                 1
    FCC_ARAB_HEAVY_3          COST                     -310  STRM_ARAB_HEAVY_VGO_3    -1
    FCC_ARAB_HEAVY_3          FSTRM_ARAB_HEAVY_NAPHTHA_3 0.55  FSTRM_ARAB_HEAVY_DIESEL_3 0.25
    FCC_ARAB_HEAVY_3          FCCCAP_3                 1
    BL_ARAB_HEAVY_VGO_DIESEL_P_3  STRM_ARAB_HEAVY_VGO_3    -1  PBAL_DIESEL_P_3          1
    BL_ARAB_HEAVY_VGO_DIESEL_P_3  QUAL_DIESEL_P_3          38800
    BL_ARAB_HEAVY_VGO_FUELOIL_3  STRM_ARAB_HEAVY_VGO_3    -1  PBAL_FUELOIL_3           1
    BL_ARAB_HEAVY_VGO_FUELOIL_3  QUAL_FUELOIL_3           4150
    TSLACK_ARAB_HEAVY_VGO_3   COST                     -180  TSTRM_ARAB_HEAVY_VGO_3   -1
    TBL_ARAB_HEAVY_VGO_DIESEL_P_3  TSTRM_ARAB_HEAVY_VGO_3   -1  PBAL_DIESEL_P_3          1
    TBL_ARAB_HEAVY_VGO_DIESEL_P_3  QUAL_DIESEL_P_3          1216
    TBL_ARAB_HEAVY_VGO_FUELOIL_3  TSTRM_ARAB_HEAVY_VGO_3   -1  PBAL_FUELOIL_3           1
    TBL_ARAB_HEAVY_VGO_FUELOIL_3  QUAL_FUELOIL_3           -33434
    SLACK_ARAB_HEAVY_RESIDUE_3  COST                     -180  STRM_ARAB_HEAVY_RESIDUE_3 -1
    HDT_ARAB_HEAVY_RESIDUE_3  COST                     -240  STRM_ARAB_HEAVY_RESIDUE_3 -1
    HDT_ARAB_HEAVY_RESIDUE_3  TSTRM_ARAB_HEAVY_RESIDUE_3 1  HDTCAP_3                 1
    BL_ARAB_HEAVY_RESIDUE_FUELOIL_3  STRM_ARAB_HEAVY_RESIDUE_3 -1  PBAL_FUELOIL_3           1
    BL_ARAB_HEAVY_RESIDUE_FUELOIL_3  QUAL_FUELOIL_3           40400
    TSLACK_ARAB_HEAVY_RESIDUE_3  COST                     -180  TSTRM_ARAB_HEAVY_RESIDUE_3 -1
    TBL_ARAB_HEAVY_RESIDUE_FUELOIL_3  TSTRM_ARAB_HEAVY_RESIDUE_3 -1  PBAL_FUELOIL_3           1
    TBL_ARAB_HEAVY_RESIDUE_FUELOIL_3  QUAL_FUELOIL_3           -31984
    FSLACK_ARAB_HEAVY_NAPHTHA_3  COST                     -180  FSTRM_ARAB_HEAVY_NAPHTHA_3 -1
    FBL_ARAB_HEAVY_NAPHTHA_GASOLINE_3  FSTRM_ARAB_HEAVY_NAPHTHA_3 -1  PBAL_GASOLINE_3          1
    FBL_ARAB_HEAVY_NAPHTHA_GASOLINE_3  QUAL_GASOLINE_3          153
    FBL_ARAB_HEAVY_NAPHTHA_JET_3  FSTRM_ARAB_HEAVY_NAPHTHA_3 -1  PBAL_JET_3               1
    FBL_ARAB_HEAVY_NAPHTHA_JET_3  QUAL_JET_3               -2297
    FSLACK_ARAB_HEAVY_DIESEL_3  COST                     -180  FSTRM_ARAB_HEAVY_DIESEL_3 -1
    FBL_ARAB_HEAVY_DIESEL_DIESEL_P_3  FSTRM_ARAB_HEAVY_DIESEL_3 -1  PBAL_DIESEL_P_3          1
    FBL_ARAB_HEAVY_DIESEL_DIESEL_P_3  QUAL_DIESEL_P_3          5232.5
    FBL_ARAB_HEAVY_DIESEL_FUELOIL_3  FSTRM_ARAB_HEAVY_DIESEL_3 -1  PBAL_FUELOIL_3           1
    FBL_ARAB_HEAVY_DIESEL_FUELOIL_3  QUAL_FUELOIL_3           -29417.5
    BUY_BASRAH_3              COST                     -6100  CBAL_BASRAH_3            1
    INVC_BASRAH_3             COST                     -73.2  CBAL_BASRAH_3            -1
    INVC_BASRAH_3             CBAL_BASRAH_4            1
    CHG_BASRAH_3              COST                     -145  CBAL_BASRAH_3            -1
    CHG_BASRAH_3              CDUCAP_3                 1  STRM_BASRAH_NAPHTHA_3    0.18
    CHG_BASRAH_3              STRM_BASRAH_KERO_3       0.15  STRM_BASRAH_DIESEL_3     0.22
    CHG_BASRAH_3              STRM_BASRAH_VGO_3        0.24  STRM_BASRAH_RESIDUE_3    0.21
    SLACK_BASRAH_NAPHTHA_3    COST                     -180  STRM_BASRAH_NAPHTHA_3    -1
    HDT_BASRAH_NAPHTHA_3      COST                     -240  STRM_BASRAH_NAPHTHA_3    -1
    HDT_BASRAH_NAPHTHA_3      TSTRM_BASRAH_NAPHTHA_3   1  HDTCAP_3                 1
    BL_BASRAH_NAPHTHA_GASOLINE_3  STRM_BASRAH_NAPHTHA_3    -1  PBAL_GASOLINE_3          1
    BL_BASRAH_NAPHTHA_GASOLINE_3  QUAL_GASOLINE_3          440
    BL_BASRAH_NAPHTHA_JET_3   STRM_BASRAH_NAPHTHA_3    -1  PBAL_JET_3               1
    BL_BASRAH_NAPHTHA_JET_3   QUAL_JET_3               -2010
    TSLACK_BASRAH_NAPHTHA_3   COST                     -180  TSTRM_BASRAH_NAPHTHA_3   -1
    TBL_BASRAH_NAPHTHA_GASOLINE_3  TSTRM_BASRAH_NAPHTHA_3   -1  PBAL_GASOLINE_3          1
    TBL_BASRAH_NAPHTHA_GASOLINE_3  QUAL_GASOLINE_3          -30.4
    TBL_BASRAH_NAPHTHA_JET_3  TSTRM_BASRAH_NAPHTHA_3   -1  PBAL_JET_3               1
    TBL_BASRAH_NAPHTHA_JET_3  QUAL_JET_3               -2480.4
    SLACK_BASRAH_KERO_3       COST                     -180  STRM_BASRAH_KERO_3       -1
    HDT_BASRAH_KERO_3         COST                     -240  STRM_BASRAH_KERO_3       -1
    HDT_BASRAH_KERO_3         TSTRM_BASRAH_KERO_3      1  HDTCAP_3                 1
    BL_BASRAH_KERO_GASOLINE_3  STRM_BASRAH_KERO_3       -1  PBAL_GASOLINE_3          1
    BL_BASRAH_KERO_GASOLINE_3  QUAL_GASOLINE_3          3625
    BL_BASRAH_KERO_JET_3      STRM_BASRAH_KERO_3       -1  PBAL_JET_3               1
    BL_BASRAH_KERO_JET_3      QUAL_JET_3               1175
    BL_BASRAH_KERO_DIESEL_P_3  STRM_BASRAH_KERO_3       -1  PBAL_DIESEL_P_3          1
    BL_BASRAH_KERO_DIESEL_P_3  QUAL_DIESEL_P_3          3325
    TSLACK_BASRAH_KERO_3      COST                     -180  TSTRM_BASRAH_KERO_3      -1
    TBL_BASRAH_KERO_GASOLINE_3  TSTRM_BASRAH_KERO_3      -1  PBAL_GASOLINE_3          1
    TBL_BASRAH_KERO_GASOLINE_3  QUAL_GASOLINE_3          97
    TBL_BASRAH_KERO_JET_3     TSTRM_BASRAH_KERO_3      -1  PBAL_JET_3               1
    TBL_BASRAH_KERO_JET_3     QUAL_JET_3               -2353
    TBL_BASRAH_KERO_DIESEL_P_3  TSTRM_BASRAH_KERO_3      -1  PBAL_DIESEL_P_3          1
    TBL_BASRAH_KERO_DIESEL_P_3  QUAL_DIESEL_P_3          -203
    SLACK_BASRAH_DIESEL_3     COST                     -180  STRM_BASRAH_DIESEL_3     -1
    HDT_BASRAH_DIESEL_3       COST                     -240  STRM_BASRAH_DIESEL_3     -1
    HDT_BASRAH_DIESEL_3       TSTRM_BASRAH_DIESEL_3    1  HDTCAP_3                 1
    BL_BASRAH_DIESEL_DIESEL_P_3  STRM_BASRAH_DIESEL_3     -1  PBAL_DIESEL_P_3          1
    BL_BASRAH_DIESEL_DIESEL_P_3  QUAL_DIESEL_P_3          13125
    BL_BASRAH_DIESEL_FUELOIL_3  STRM_BASRAH_DIESEL_3     -1  PBAL_FUELOIL_3           1
    BL_BASRAH_DIESEL_FUELOIL_3  QUAL_FUELOIL_3           -21525
    TSLACK_BASRAH_DIESEL_3    COST                     -180  TSTRM_BASRAH_DIESEL_3    -1
    TBL_BASRAH_DIESEL_DIESEL_P_3  TSTRM_BASRAH_DIESEL_3    -1  PBAL_DIESEL_P_3          1
    TBL_BASRAH_DIESEL_DIESEL_P_3  QUAL_DIESEL_P_3          189
    TBL_BASRAH_DIESEL_FUELOIL_3  TSTRM_BASRAH_DIESEL_3    -1  PBAL_FUELOIL_3           1
    TBL_BASRAH_DIESEL_FUELOIL_3  QUAL_FUELOIL_3           -34461
    SLACK_BASRAH_VGO_3        COST                     -180  STRM_BASRAH_VGO_3        -1
    HDT_BASRAH_VGO_3          COST                     -240  STRM_BASRAH_VGO_3        -1
    HDT_BASRAH_VGO_3          TSTRM_BASRAH_VGO_3       1  HDTCAP_3                 1
    FCC_BASRAH_3              COST                     -310  STRM_BASRAH_VGO_3        -1
    FCC_BASRAH_3              FSTRM_BASRAH_NAPHTHA_3   0.55  FSTRM_BASRAH_DIESEL_3    0.25
    FCC_BASRAH_3              FCCCAP_3                 1
    BL_BASRAH_VGO_DIESEL_P_3  STRM_BASRAH_VGO_3        -1  PBAL_DIESEL_P_3          1
    BL_BASRAH_VGO_DIESEL_P_3  QUAL_DIESEL_P_3          32725
    BL_BASRAH_VGO_FUELOIL_3   STRM_BASRAH_VGO_3        -1  PBAL_FUELOIL_3           1
    BL_BASRAH_VGO_FUELOIL_3   QUAL_FUELOIL_3           -1925
    TSLACK_BASRAH_VGO_3       COST                     -180  TSTRM_BASRAH_VGO_3       -1
    TBL_BASRAH_VGO_DIESEL_P_3  TSTRM_BASRAH_VGO_3       -1  PBAL_DIESEL_P_3          1
    TBL_BASRAH_VGO_DIESEL_P_3  QUAL_DIESEL_P_3          973
    TBL_BASRAH_VGO_FUELOIL_3  TSTRM_BASRAH_VGO_3       -1  PBAL_FUELOIL_3           1
    TBL_BASRAH_VGO_FUELOIL_3  QUAL_FUELOIL_3           -33677
    SLACK_BASRAH_RESIDUE_3    COST                     -180  STRM_BASRAH_RESIDUE_3    -1
    HDT_BASRAH_RESIDUE_3      COST                     -240  STRM_BASRAH_RESIDUE_3    -1
    HDT_BASRAH_RESIDUE_3      TSTRM_BASRAH_RESIDUE_3   1  HDTCAP_3                 1
    BL_BASRAH_RESIDUE_FUELOIL_3  STRM_BASRAH_RESIDUE_3    -1  PBAL_FUELOIL_3           1
    BL_BASRAH_RESIDUE_FUELOIL_3  QUAL_FUELOIL_3           28700
    TSLACK_BASRAH_RESIDUE_3   COST                     -180  TSTRM_BASRAH_RESIDUE_3   -1
    TBL_BASRAH_RESIDUE_FUELOIL_3  TSTRM_BASRAH_RESIDUE_3   -1  PBAL_FUELOIL_3           1
    TBL_BASRAH_RESIDUE_FUELOIL_3  QUAL_FUELOIL_3           -32452
    FSLACK_BASRAH_NAPHTHA_3   COST                     -180  FSTRM_BASRAH_NAPHTHA_3   -1
    FBL_BASRAH_NAPHTHA_GASOLINE_3  FSTRM_BASRAH_NAPHTHA_3   -1  PBAL_GASOLINE_3          1
    FBL_BASRAH_NAPHTHA_GASOLINE_3  QUAL_GASOLINE_3          121.5
    FBL_BASRAH_NAPHTHA_JET_3  FSTRM_BASRAH_NAPHTHA_3   -1  PBAL_JET_3               1
    FBL_BASRAH_NAPHTHA_JET_3  QUAL_JET_3               -2328.5
    FSLACK_BASRAH_DIESEL_3    COST                     -180  FSTRM_BASRAH_DIESEL_3    -1
    FBL_BASRAH_DIESEL_DIESEL_P_3  FSTRM_BASRAH_DIESEL_3    -1  PBAL_DIESEL_P_3          1
    FBL_BASRAH_DIESEL_DIESEL_P_3  QUAL_DIESEL_P_3          4366.25
    FBL_BASRAH_DIESEL_FUELOIL_3  FSTRM_BASRAH_DIESEL_3    -1  PBAL_FUELOIL_3           1
    FBL_BASRAH_DIESEL_FUELOIL_3  QUAL_FUELOIL_3           -30283.75
    BUY_URALS_3               COST                     -6260  CBAL_URALS_3             1
    INVC_URALS_3              COST                     -75.12  CBAL_URALS_3             -1
    INVC_URALS_3              CBAL_URALS_4             1
    CHG_URALS_3               COST                     -145  CBAL_URALS_3             -1
    CHG_URALS_3               CDUCAP_3                 1  STRM_URALS_NAPHTHA_3     0.2
    CHG_URALS_3               STRM_URALS_KERO_3        0.16  STRM_URALS_DIESEL_3      0.24
    CHG_URALS_3               STRM_URALS_VGO_3         0.23  STRM_URALS_RESIDUE_3     0.17
    SLACK_URALS_NAPHTHA_3     COST                     -180  STRM_URALS_NAPHTHA_3     -1
    HDT_URALS_NAPHTHA_3       COST                     -240  STRM_URALS_NAPHTHA_3     -1
    HDT_URALS_NAPHTHA_3       TSTRM_URALS_NAPHTHA_3    1  HDTCAP_3                 1
    BL_URALS_NAPHTHA_GASOLINE_3  STRM_URALS_NAPHTHA_3     -1  PBAL_GASOLINE_3          1
    BL_URALS_NAPHTHA_GASOLINE_3  QUAL_GASOLINE_3          226
    BL_URALS_NAPHTHA_JET_3    STRM_URALS_NAPHTHA_3     -1  PBAL_JET_3               1
    BL_URALS_NAPHTHA_JET_3    QUAL_JET_3               -2224
    TSLACK_URALS_NAPHTHA_3    COST                     -180  TSTRM_URALS_NAPHTHA_3    -1
    TBL_URALS_NAPHTHA_GASOLINE_3  TSTRM_URALS_NAPHTHA_3    -1  PBAL_GASOLINE_3          1
    TBL_URALS_NAPHTHA_GASOLINE_3  QUAL_GASOLINE_3          -38.96
    TBL_URALS_NAPHTHA_JET_3   TSTRM_URALS_NAPHTHA_3    -1  PBAL_JET_3               1
    TBL_URALS_NAPHTHA_JET_3   QUAL_JET_3               -2488.96
    SLACK_URALS_KERO_3        COST                     -180  STRM_URALS_KERO_3        -1
    HDT_URALS_KERO_3          COST                     -240  STRM_URALS_KERO_3        -1
    HDT_URALS_KERO_3          TSTRM_URALS_KERO_3       1  HDTCAP_3                 1
    BL_URALS_KERO_GASOLINE_3  STRM_URALS_KERO_3        -1  PBAL_GASOLINE_3          1
    BL_URALS_KERO_GASOLINE_3  QUAL_GASOLINE_3          2020
    BL_URALS_KERO_JET_3       STRM_URALS_KERO_3        -1  PBAL_JET_3               1
    BL_URALS_KERO_JET_3       QUAL_JET_3               -430
    BL_URALS_KERO_DIESEL_P_3  STRM_URALS_KERO_3        -1  PBAL_DIESEL_P_3          1
    BL_URALS_KERO_DIESEL_P_3  QUAL_DIESEL_P_3          1720
    TSLACK_URALS_KERO_3       COST                     -180  TSTRM_URALS_KERO_3       -1
    TBL_URALS_KERO_GASOLINE_3  TSTRM_URALS_KERO_3       -1  PBAL_GASOLINE_3          1
    TBL_URALS_KERO_GASOLINE_3  QUAL_GASOLINE_3          32.8
    TBL_URALS_KERO_JET_3      TSTRM_URALS_KERO_3       -1  PBAL_JET_3               1
    TBL_URALS_KERO_JET_3      QUAL_JET_3               -2417.2
    TBL_URALS_KERO_DIESEL_P_3  TSTRM_URALS_KERO_3       -1  PBAL_DIESEL_P_3          1
    TBL_URALS_KERO_DIESEL_P_3  QUAL_DIESEL_P_3          -267.2
    SLACK_URALS_DIESEL_3      COST                     -180  STRM_URALS_DIESEL_3      -1
    HDT_URALS_DIESEL_3        COST                     -240  STRM_URALS_DIESEL_3      -1
    HDT_URALS_DIESEL_3        TSTRM_URALS_DIESEL_3     1  HDTCAP_3                 1
    BL_URALS_DIESEL_DIESEL_P_3  STRM_URALS_DIESEL_3      -1  PBAL_DIESEL_P_3          1
    BL_URALS_DIESEL_DIESEL_P_3  QUAL_DIESEL_P_3          7240
    BL_URALS_DIESEL_FUELOIL_3  STRM_URALS_DIESEL_3      -1  PBAL_FUELOIL_3           1
    BL_URALS_DIESEL_FUELOIL_3  QUAL_FUELOIL_3           -27410
    TSLACK_URALS_DIESEL_3     COST                     -180  TSTRM_URALS_DIESEL_3     -1
    TBL_URALS_DIESEL_DIESEL_P_3  TSTRM_URALS_DIESEL_3     -1  PBAL_DIESEL_P_3          1
    TBL_URALS_DIESEL_DIESEL_P_3  QUAL_DIESEL_P_3          -46.4
    TBL_URALS_DIESEL_FUELOIL_3  TSTRM_URALS_DIESEL_3     -1  PBAL_FUELOIL_3           1
    TBL_URALS_DIESEL_FUELOIL_3  QUAL_FUELOIL_3           -34696.4
    SLACK_URALS_VGO_3         COST                     -180  STRM_URALS_VGO_3         -1
    HDT_URALS_VGO_3           COST                     -240  STRM_URALS_VGO_3         -1
    HDT_URALS_VGO_3           TSTRM_URALS_VGO_3        1  HDTCAP_3                 1
    FCC_URALS_3               COST                     -310  STRM_URALS_VGO_3         -1
    FCC_URALS_3               FSTRM_URALS_NAPHTHA_3    0.55  FSTRM_URALS_DIESEL_3     0.25
    FCC_URALS_3               FCCCAP_3                 1
    BL_URALS_VGO_DIESEL_P_3   STRM_URALS_VGO_3         -1  PBAL_DIESEL_P_3          1
    BL_URALS_VGO_DIESEL_P_3   QUAL_DIESEL_P_3          18280
    BL_URALS_VGO_FUELOIL_3    STRM_URALS_VGO_3         -1  PBAL_FUELOIL_3           1
    BL_URALS_VGO_FUELOIL_3    QUAL_FUELOIL_3           -16370
    TSLACK_URALS_VGO_3        COST                     -180  TSTRM_URALS_VGO_3        -1
    TBL_URALS_VGO_DIESEL_P_3  TSTRM_URALS_VGO_3        -1  PBAL_DIESEL_P_3          1
    TBL_URALS_VGO_DIESEL_P_3  QUAL_DIESEL_P_3          395.2
    TBL_URALS_VGO_FUELOIL_3   TSTRM_URALS_VGO_3        -1  PBAL_FUELOIL_3           1
    TBL_URALS_VGO_FUELOIL_3   QUAL_FUELOIL_3           -34254.8
    SLACK_URALS_RESIDUE_3     COST                     -180  STRM_URALS_RESIDUE_3     -1
    HDT_URALS_RESIDUE_3       COST                     -240  STRM_URALS_RESIDUE_3     -1
    HDT_URALS_RESIDUE_3       TSTRM_URALS_RESIDUE_3    1  HDTCAP_3                 1
    BL_URALS_RESIDUE_FUELOIL_3  STRM_URALS_RESIDUE_3     -1  PBAL_FUELOIL_3           1
    BL_URALS_RESIDUE_FUELOIL_3  QUAL_FUELOIL_3           880
    TSLACK_URALS_RESIDUE_3    COST                     -180  TSTRM_URALS_RESIDUE_3    -1
    TBL_URALS_RESIDUE_FUELOIL_3  TSTRM_URALS_RESIDUE_3    -1  PBAL_FUELOIL_3           1
    TBL_URALS_RESIDUE_FUELOIL_3  QUAL_FUELOIL_3           -33564.8
    FSLACK_URALS_NAPHTHA_3    COST                     -180  FSTRM_URALS_NAPHTHA_3    -1
    FBL_URALS_NAPHTHA_GASOLINE_3  FSTRM_URALS_NAPHTHA_3    -1  PBAL_GASOLINE_3          1
    FBL_URALS_NAPHTHA_GASOLINE_3  QUAL_GASOLINE_3          46.6
    FBL_URALS_NAPHTHA_JET_3   FSTRM_URALS_NAPHTHA_3    -1  PBAL_JET_3               1
    FBL_URALS_NAPHTHA_JET_3   QUAL_JET_3               -2403.4
    FSLACK_URALS_DIESEL_3     COST                     -180  FSTRM_URALS_DIESEL_3     -1
    FBL_URALS_DIESEL_DIESEL_P_3  FSTRM_URALS_DIESEL_3     -1  PBAL_DIESEL_P_3          1
    FBL_URALS_DIESEL_DIESEL_P_3  QUAL_DIESEL_P_3          2306.5
    FBL_URALS_DIESEL_FUELOIL_3  FSTRM_URALS_DIESEL_3     -1  PBAL_FUELOIL_3           1
    FBL_URALS_DIESEL_FUELOIL_3  QUAL_FUELOIL_3           -32343.5
    BUY_MURBAN_3              COST                     -6980  CBAL_MURBAN_3            1
    INVC_MURBAN_3             COST                     -83.76  CBAL_MURBAN_3            -1
    INVC_MURBAN_3             CBAL_MURBAN_4            1
    CHG_MURBAN_3              COST                     -145  CBAL_MURBAN_3            -1
    CHG_MURBAN_3              CDUCAP_3                 1  STRM_MURBAN_NAPHTHA_3    0.28
    CHG_MURBAN_3              STRM_MURBAN_KERO_3       0.19  STRM_MURBAN_DIESEL_3     0.23
    CHG_MURBAN_3              STRM_MURBAN_VGO_3        0.19  STRM_MURBAN_RESIDUE_3    0.11
    SLACK_MURBAN_NAPHTHA_3    COST                     -180  STRM_MURBAN_NAPHTHA_3    -1
    HDT_MURBAN_NAPHTHA_3      COST                     -240  STRM_MURBAN_NAPHTHA_3    -1
    HDT_MURBAN_NAPHTHA_3      TSTRM_MURBAN_NAPHTHA_3   1  HDTCAP_3                 1
    BL_MURBAN_NAPHTHA_GASOLINE_3  STRM_MURBAN_NAPHTHA_3    -1  PBAL_GASOLINE_3          1
    BL_MURBAN_NAPHTHA_GASOLINE_3  QUAL_GASOLINE_3          98
    BL_MURBAN_NAPHTHA_JET_3   STRM_MURBAN_NAPHTHA_3    -1  PBAL_JET_3               1
    BL_MURBAN_NAPHTHA_JET_3   QUAL_JET_3               -2352
    TSLACK_MURBAN_NAPHTHA_3   COST                     -180  TSTRM_MURBAN_NAPHTHA_3   -1
    TBL_MURBAN_NAPHTHA_GASOLINE_3  TSTRM_MURBAN_NAPHTHA_3   -1  PBAL_GASOLINE_3          1
    TBL_MURBAN_NAPHTHA_GASOLINE_3  QUAL_GASOLINE_3          -44.08
    TBL_MURBAN_NAPHTHA_JET_3  TSTRM_MURBAN_NAPHTHA_3   -1  PBAL_JET_3               1
    TBL_MURBAN_NAPHTHA_JET_3  QUAL_JET_3               -2494.08
    SLACK_MURBAN_KERO_3       COST                     -180  STRM_MURBAN_KERO_3       -1
    HDT_MURBAN_KERO_3         COST                     -240  STRM_MURBAN_KERO_3       -1
    HDT_MURBAN_KERO_3         TSTRM_MURBAN_KERO_3      1  HDTCAP_3                 1
    BL_MURBAN_KERO_GASOLINE_3  STRM_MURBAN_KERO_3       -1  PBAL_GASOLINE_3          1
    BL_MURBAN_KERO_GASOLINE_3  QUAL_GASOLINE_3          1060
    BL_MURBAN_KERO_JET_3      STRM_MURBAN_KERO_3       -1  PBAL_JET_3               1
    BL_MURBAN_KERO_JET_3      QUAL_JET_3               -1390
    BL_MURBAN_KERO_DIESEL_P_3  STRM_MURBAN_KERO_3       -1  PBAL_DIESEL_P_3          1
    BL_MURBAN_KERO_DIESEL_P_3  QUAL_DIESEL_P_3          760
    TSLACK_MURBAN_KERO_3      COST                     -180  TSTRM_MURBAN_KERO_3      -1
    TBL_MURBAN_KERO_GASOLINE_3  TSTRM_MURBAN_KERO_3      -1  PBAL_GASOLINE_3          1
    TBL_MURBAN_KERO_GASOLINE_3  QUAL_GASOLINE_3          -5.6
    TBL_MURBAN_KERO_JET_3     TSTRM_MURBAN_KERO_3      -1  PBAL_JET_3               1
    TBL_MURBAN_KERO_JET_3     QUAL_JET_3               -2455.6
    TBL_MURBAN_KERO_DIESEL_P_3  TSTRM_MURBAN_KERO_3      -1  PBAL_DIESEL_P_3          1
    TBL_MURBAN_KERO_DIESEL_P_3  QUAL_DIESEL_P_3          -305.6
    SLACK_MURBAN_DIESEL_3     COST                     -180  STRM_MURBAN_DIESEL_3     -1
    HDT_MURBAN_DIESEL_3       COST                     -240  STRM_MURBAN_DIESEL_3     -1
    HDT_MURBAN_DIESEL_3       TSTRM_MURBAN_DIESEL_3    1  HDTCAP_3                 1
    BL_MURBAN_DIESEL_DIESEL_P_3  STRM_MURBAN_DIESEL_3     -1  PBAL_DIESEL_P_3          1
    BL_MURBAN_DIESEL_DIESEL_P_3  QUAL_DIESEL_P_3          3720
    BL_MURBAN_DIESEL_FUELOIL_3  STRM_MURBAN_DIESEL_3     -1  PBAL_FUELOIL_3           1
    BL_MURBAN_DIESEL_FUELOIL_3  QUAL_FUELOIL_3           -30930
    TSLACK_MURBAN_DIESEL_3    COST                     -180  TSTRM_MURBAN_DIESEL_3    -1
    TBL_MURBAN_DIESEL_DIESEL_P_3  TSTRM_MURBAN_DIESEL_3    -1  PBAL_DIESEL_P_3          1
    TBL_MURBAN_DIESEL_DIESEL_P_3  QUAL_DIESEL_P_3          -187.2
    TBL_MURBAN_DIESEL_FUELOIL_3  TSTRM_MURBAN_DIESEL_3    -1  PBAL_FUELOIL_3           1
    TBL_MURBAN_DIESEL_FUELOIL_3  QUAL_FUELOIL_3           -34837.2
    SLACK_MURBAN_VGO_3        COST                     -180  STRM_MURBAN_VGO_3        -1
    HDT_MURBAN_VGO_3          COST                     -240  STRM_MURBAN_VGO_3        -1
    HDT_MURBAN_VGO_3          TSTRM_MURBAN_VGO_3       1  HDTCAP_3                 1
    FCC_MURBAN_3              COST                     -310  STRM_MURBAN_VGO_3        -1
    FCC_MURBAN_3              FSTRM_MURBAN_NAPHTHA_3   0.55  FSTRM_MURBAN_DIESEL_3    0.25
    FCC_MURBAN_3              FCCCAP_3                 1
    BL_MURBAN_VGO_DIESEL_P_3  STRM_MURBAN_VGO_3        -1  PBAL_DIESEL_P_3          1
    BL_MURBAN_VGO_DIESEL_P_3  QUAL_DIESEL_P_3          9640
    BL_MURBAN_VGO_FUELOIL_3   STRM_MURBAN_VGO_3        -1  PBAL_FUELOIL_3           1
    BL_MURBAN_VGO_FUELOIL_3   QUAL_FUELOIL_3           -25010
    TSLACK_MURBAN_VGO_3       COST                     -180  TSTRM_MURBAN_VGO_3       -1
    TBL_MURBAN_VGO_DIESEL_P_3  TSTRM_MURBAN_VGO_3       -1  PBAL_DIESEL_P_3          1
    TBL_MURBAN_VGO_DIESEL_P_3  QUAL_DIESEL_P_3          49.6
    TBL_MURBAN_VGO_FUELOIL_3  TSTRM_MURBAN_VGO_3       -1  PBAL_FUELOIL_3           1
    TBL_MURBAN_VGO_FUELOIL_3  QUAL_FUELOIL_3           -34600.4
    SLACK_MURBAN_RESIDUE_3    COST                     -180  STRM_MURBAN_RESIDUE_3    -1
    HDT_MURBAN_RESIDUE_3      COST                     -240  STRM_MURBAN_RESIDUE_3    -1
    HDT_MURBAN_RESIDUE_3      TSTRM_MURBAN_RESIDUE_3   1  HDTCAP_3                 1
    BL_MURBAN_RESIDUE_FUELOIL_3  STRM_MURBAN_RESIDUE_3    -1  PBAL_FUELOIL_3           1
    BL_MURBAN_RESIDUE_FUELOIL_3  QUAL_FUELOIL_3           -15760
    TSLACK_MURBAN_RESIDUE_3   COST                     -180  TSTRM_MURBAN_RESIDUE_3   -1
    TBL_MURBAN_RESIDUE_FUELOIL_3  TSTRM_MURBAN_RESIDUE_3   -1  PBAL_FUELOIL_3           1
    TBL_MURBAN_RESIDUE_FUELOIL_3  QUAL_FUELOIL_3           -34230.4
    FSLACK_MURBAN_NAPHTHA_3   COST                     -180  FSTRM_MURBAN_NAPHTHA_3   -1
    FBL_MURBAN_NAPHTHA_GASOLINE_3  FSTRM_MURBAN_NAPHTHA_3   -1  PBAL_GASOLINE_3          1
    FBL_MURBAN_NAPHTHA_GASOLINE_3  QUAL_GASOLINE_3          1.8
    FBL_MURBAN_NAPHTHA_JET_3  FSTRM_MURBAN_NAPHTHA_3   -1  PBAL_JET_3               1
    FBL_MURBAN_NAPHTHA_JET_3  QUAL_JET_3               -2448.2
    FSLACK_MURBAN_DIESEL_3    COST                     -180  FSTRM_MURBAN_DIESEL_3    -1
    FBL_MURBAN_DIESEL_DIESEL_P_3  FSTRM_MURBAN_DIESEL_3    -1  PBAL_DIESEL_P_3          1
    FBL_MURBAN_DIESEL_DIESEL_P_3  QUAL_DIESEL_P_3          1074.5
    FBL_MURBAN_DIESEL_FUELOIL_3  FSTRM_MURBAN_DIESEL_3    -1  PBAL_FUELOIL_3           1
    FBL_MURBAN_DIESEL_FUELOIL_3  QUAL_FUELOIL_3           -33575.5
    BUY_ES_SIDER_3            COST                     -6540  CBAL_ES_SIDER_3          1
    INVC_ES_SIDER_3           COST                     -78.48  CBAL_ES_SIDER_3          -1
    INVC_ES_SIDER_3           CBAL_ES_SIDER_4          1
    CHG_ES_SIDER_3            COST                     -145  CBAL_ES_SIDER_3          -1
    CHG_ES_SIDER_3            CDUCAP_3                 1  STRM_ES_SIDER_NAPHTHA_3  0.25
    CHG_ES_SIDER_3            STRM_ES_SIDER_KERO_3     0.18  STRM_ES_SIDER_DIESEL_3   0.25
    CHG_ES_SIDER_3            STRM_ES_SIDER_VGO_3      0.2  STRM_ES_SIDER_RESIDUE_3  0.12
    SLACK_ES_SIDER_NAPHTHA_3  COST                     -180  STRM_ES_SIDER_NAPHTHA_3  -1
    HDT_ES_SIDER_NAPHTHA_3    COST                     -240  STRM_ES_SIDER_NAPHTHA_3  -1
    HDT_ES_SIDER_NAPHTHA_3    TSTRM_ES_SIDER_NAPHTHA_3 1  HDTCAP_3                 1
    BL_ES_SIDER_NAPHTHA_GASOLINE_3  STRM_ES_SIDER_NAPHTHA_3  -1  PBAL_GASOLINE_3          1
    BL_ES_SIDER_NAPHTHA_GASOLINE_3  QUAL_GASOLINE_3          32
    BL_ES_SIDER_NAPHTHA_JET_3  STRM_ES_SIDER_NAPHTHA_3  -1  PBAL_JET_3               1
    BL_ES_SIDER_NAPHTHA_JET_3  QUAL_JET_3               -2418
    TSLACK_ES_SIDER_NAPHTHA_3  COST                     -180  TSTRM_ES_SIDER_NAPHTHA_3 -1
    TBL_ES_SIDER_NAPHTHA_GASOLINE_3  TSTRM_ES_SIDER_NAPHTHA_3 -1  PBAL_GASOLINE_3          1
    TBL_ES_SIDER_NAPHTHA_GASOLINE_3  QUAL_GASOLINE_3          -46.72
    TBL_ES_SIDER_NAPHTHA_JET_3  TSTRM_ES_SIDER_NAPHTHA_3 -1  PBAL_JET_3               1
    TBL_ES_SIDER_NAPHTHA_JET_3  QUAL_JET_3               -2496.72
    SLACK_ES_SIDER_KERO_3     COST                     -180  STRM_ES_SIDER_KERO_3     -1
    HDT_ES_SIDER_KERO_3       COST                     -240  STRM_ES_SIDER_KERO_3     -1
    HDT_ES_SIDER_KERO_3       TSTRM_ES_SIDER_KERO_3    1  HDTCAP_3                 1
    BL_ES_SIDER_KERO_GASOLINE_3  STRM_ES_SIDER_KERO_3     -1  PBAL_GASOLINE_3          1
    BL_ES_SIDER_KERO_GASOLINE_3  QUAL_GASOLINE_3          565
    BL_ES_SIDER_KERO_JET_3    STRM_ES_SIDER_KERO_3     -1  PBAL_JET_3               1
    BL_ES_SIDER_KERO_JET_3    QUAL_JET_3               -1885
    BL_ES_SIDER_KERO_DIESEL_P_3  STRM_ES_SIDER_KERO_3     -1  PBAL_DIESEL_P_3          1
    BL_ES_SIDER_KERO_DIESEL_P_3  QUAL_DIESEL_P_3          265
    TSLACK_ES_SIDER_KERO_3    COST                     -180  TSTRM_ES_SIDER_KERO_3    -1
    TBL_ES_SIDER_KERO_GASOLINE_3  TSTRM_ES_SIDER_KERO_3    -1  PBAL_GASOLINE_3          1
    TBL_ES_SIDER_KERO_GASOLINE_3  QUAL_GASOLINE_3          -25.4
    TBL_ES_SIDER_KERO_JET_3   TSTRM_ES_SIDER_KERO_3    -1  PBAL_JET_3               1
    TBL_ES_SIDER_KERO_JET_3   QUAL_JET_3               -2475.4
    TBL_ES_SIDER_KERO_DIESEL_P_3  TSTRM_ES_SIDER_KERO_3    -1  PBAL_DIESEL_P_3          1
    TBL_ES_SIDER_KERO_DIESEL_P_3  QUAL_DIESEL_P_3          -325.4
    SLACK_ES_SIDER_DIESEL_3   COST                     -180  STRM_ES_SIDER_DIESEL_3   -1
    HDT_ES_SIDER_DIESEL_3     COST                     -240  STRM_ES_SIDER_DIESEL_3   -1
    HDT_ES_SIDER_DIESEL_3     TSTRM_ES_SIDER_DIESEL_3  1  HDTCAP_3                 1
    BL_ES_SIDER_DIESEL_DIESEL_P_3  STRM_ES_SIDER_DIESEL_3   -1  PBAL_DIESEL_P_3          1
    BL_ES_SIDER_DIESEL_DIESEL_P_3  QUAL_DIESEL_P_3          1905
    BL_ES_SIDER_DIESEL_FUELOIL_3  STRM_ES_SIDER_DIESEL_3   -1  PBAL_FUELOIL_3           1
    BL_ES_SIDER_DIESEL_FUELOIL_3  QUAL_FUELOIL_3           -32745
    TSLACK_ES_SIDER_DIESEL_3  COST                     -180  TSTRM_ES_SIDER_DIESEL_3  -1
    TBL_ES_SIDER_DIESEL_DIESEL_P_3  TSTRM_ES_SIDER_DIESEL_3  -1  PBAL_DIESEL_P_3          1
    TBL_ES_SIDER_DIESEL_DIESEL_P_3  QUAL_DIESEL_P_3          -259.8
    TBL_ES_SIDER_DIESEL_FUELOIL_3  TSTRM_ES_SIDER_DIESEL_3  -1  PBAL_FUELOIL_3           1
    TBL_ES_SIDER_DIESEL_FUELOIL_3  QUAL_FUELOIL_3           -34909.8
    SLACK_ES_SIDER_VGO_3      COST                     -180  STRM_ES_SIDER_VGO_3      -1
    HDT_ES_SIDER_VGO_3        COST                     -240  STRM_ES_SIDER_VGO_3      -1
    HDT_ES_SIDER_VGO_3        TSTRM_ES_SIDER_VGO_3     1  HDTCAP_3                 1
    FCC_ES_SIDER_3            COST                     -310  STRM_ES_SIDER_VGO_3      -1
    FCC_ES_SIDER_3            FSTRM_ES_SIDER_NAPHTHA_3 0.55  FSTRM_ES_SIDER_DIESEL_3  0.25
    FCC_ES_SIDER_3            FCCCAP_3                 1
    BL_ES_SIDER_VGO_DIESEL_P_3  STRM_ES_SIDER_VGO_3      -1  PBAL_DIESEL_P_3          1
    BL_ES_SIDER_VGO_DIESEL_P_3  QUAL_DIESEL_P_3          5185
    BL_ES_SIDER_VGO_FUELOIL_3  STRM_ES_SIDER_VGO_3      -1  PBAL_FUELOIL_3           1
    BL_ES_SIDER_VGO_FUELOIL_3  QUAL_FUELOIL_3           -29465
    TSLACK_ES_SIDER_VGO_3     COST                     -180  TSTRM_ES_SIDER_VGO_3     -1
    TBL_ES_SIDER_VGO_DIESEL_P_3  TSTRM_ES_SIDER_VGO_3     -1  PBAL_DIESEL_P_3          1
    TBL_ES_SIDER_VGO_DIESEL_P_3  QUAL_DIESEL_P_3          -128.6
    TBL_ES_SIDER_VGO_FUELOIL_3  TSTRM_ES_SIDER_VGO_3     -1  PBAL_FUELOIL_3           1
    TBL_ES_SIDER_VGO_FUELOIL_3  QUAL_FUELOIL_3           -34778.6
    SLACK_ES_SIDER_RESIDUE_3  COST                     -180  STRM_ES_SIDER_RESIDUE_3  -1
    HDT_ES_SIDER_RESIDUE_3    COST                     -240  STRM_ES_SIDER_RESIDUE_3  -1
    HDT_ES_SIDER_RESIDUE_3    TSTRM_ES_SIDER_RESIDUE_3 1  HDTCAP_3                 1
    BL_ES_SIDER_RESIDUE_FUELOIL_3  STRM_ES_SIDER_RESIDUE_3  -1  PBAL_FUELOIL_3           1
    BL_ES_SIDER_RESIDUE_FUELOIL_3  QUAL_FUELOIL_3           -24340
    TSLACK_ES_SIDER_RESIDUE_3  COST                     -180  TSTRM_ES_SIDER_RESIDUE_3 -1
    TBL_ES_SIDER_RESIDUE_FUELOIL_3  TSTRM_ES_SIDER_RESIDUE_3 -1  PBAL_FUELOIL_3           1
    TBL_ES_SIDER_RESIDUE_FUELOIL_3  QUAL_FUELOIL_3           -34573.6
    FSLACK_ES_SIDER_NAPHTHA_3  COST                     -180  FSTRM_ES_SIDER_NAPHTHA_3 -1
    FBL_ES_SIDER_NAPHTHA_GASOLINE_3  FSTRM_ES_SIDER_NAPHTHA_3 -1  PBAL_GASOLINE_3          1
    FBL_ES_SIDER_NAPHTHA_GASOLINE_3  QUAL_GASOLINE_3          -21.3
    FBL_ES_SIDER_NAPHTHA_JET_3  FSTRM_ES_SIDER_NAPHTHA_3 -1  PBAL_JET_3               1
    FBL_ES_SIDER_NAPHTHA_JET_3  QUAL_JET_3               -2471.3
    FSLACK_ES_SIDER_DIESEL_3  COST                     -180  FSTRM_ES_SIDER_DIESEL_3  -1
    FBL_ES_SIDER_DIESEL_DIESEL_P_3  FSTRM_ES_SIDER_DIESEL_3  -1  PBAL_DIESEL_P_3          1
    FBL_ES_SIDER_DIESEL_DIESEL_P_3  QUAL_DIESEL_P_3          439.25
    FBL_ES_SIDER_DIESEL_FUELOIL_3  FSTRM_ES_SIDER_DIESEL_3  -1  PBAL_FUELOIL_3           1
    FBL_ES_SIDER_DIESEL_FUELOIL_3  QUAL_FUELOIL_3           -34210.75
    BUY_QUA_IBOE_3            COST                     -6890  CBAL_QUA_IBOE_3          1
    INVC_QUA_IBOE_3           COST                     -82.68  CBAL_QUA_IBOE_3          -1
    INVC_QUA_IBOE_3           CBAL_QUA_IBOE_4          1
    CHG_QUA_IBOE_3            COST                     -145  CBAL_QUA_IBOE_3          -1
    CHG_QUA_IBOE_3            CDUCAP_3                 1  STRM_QUA_IBOE_NAPHTHA_3  0.27
    CHG_QUA_IBOE_3            STRM_QUA_IBOE_KERO_3     0.2  STRM_QUA_IBOE_DIESEL_3   0.25
    CHG_QUA_IBOE_3            STRM_QUA_IBOE_VGO_3      0.18  STRM_QUA_IBOE_RESIDUE_3  0.1
    SLACK_QUA_IBOE_NAPHTHA_3  COST                     -180  STRM_QUA_IBOE_NAPHTHA_3  -1
    HDT_QUA_IBOE_NAPHTHA_3    COST                     -240  STRM_QUA_IBOE_NAPHTHA_3  -1
    HDT_QUA_IBOE_NAPHTHA_3    TSTRM_QUA_IBOE_NAPHTHA_3 1  HDTCAP_3                 1
    BL_QUA_IBOE_NAPHTHA_GASOLINE_3  STRM_QUA_IBOE_NAPHTHA_3  -1  PBAL_GASOLINE_3          1
    BL_QUA_IBOE_NAPHTHA_GASOLINE_3  QUAL_GASOLINE_3          -24
    BL_QUA_IBOE_NAPHTHA_JET_3  STRM_QUA_IBOE_NAPHTHA_3  -1  PBAL_JET_3               1
    BL_QUA_IBOE_NAPHTHA_JET_3  QUAL_JET_3               -2474
    TSLACK_QUA_IBOE_NAPHTHA_3  COST                     -180  TSTRM_QUA_IBOE_NAPHTHA_3 -1
    TBL_QUA_IBOE_NAPHTHA_GASOLINE_3  TSTRM_QUA_IBOE_NAPHTHA_3 -1  PBAL_GASOLINE_3          1
    TBL_QUA_IBOE_NAPHTHA_GASOLINE_3  QUAL_GASOLINE_3          -48.96
    TBL_QUA_IBOE_NAPHTHA_JET_3  TSTRM_QUA_IBOE_NAPHTHA_3 -1  PBAL_JET_3               1
    TBL_QUA_IBOE_NAPHTHA_JET_3  QUAL_JET_3               -2498.96
    SLACK_QUA_IBOE_KERO_3     COST                     -180  STRM_QUA_IBOE_KERO_3     -1
    HDT_QUA_IBOE_KERO_3       COST                     -240  STRM_QUA_IBOE_KERO_3     -1
    HDT_QUA_IBOE_KERO_3       TSTRM_QUA_IBOE_KERO_3    1  HDTCAP_3                 1
    BL_QUA_IBOE_KERO_GASOLINE_3  STRM_QUA_IBOE_KERO_3     -1  PBAL_GASOLINE_3          1
    BL_QUA_IBOE_KERO_GASOLINE_3  QUAL_GASOLINE_3          145
    BL_QUA_IBOE_KERO_JET_3    STRM_QUA_IBOE_KERO_3     -1  PBAL_JET_3               1
    BL_QUA_IBOE_KERO_JET_3    QUAL_JET_3               -2305
    BL_QUA_IBOE_KERO_DIESEL_P_3  STRM_QUA_IBOE_KERO_3     -1  PBAL_DIESEL_P_3          1
    BL_QUA_IBOE_KERO_DIESEL_P_3  QUAL_DIESEL_P_3          -155
    TSLACK_QUA_IBOE_KERO_3    COST                     -180  TSTRM_QUA_IBOE_KERO_3    -1
    TBL_QUA_IBOE_KERO_GASOLINE_3  TSTRM_QUA_IBOE_KERO_3    -1  PBAL_GASOLINE_3          1
    TBL_QUA_IBOE_KERO_GASOLINE_3  QUAL_GASOLINE_3          -42.2
    TBL_QUA_IBOE_KERO_JET_3   TSTRM_QUA_IBOE_KERO_3    -1  PBAL_JET_3               1
    TBL_QUA_IBOE_KERO_JET_3   QUAL_JET_3               -2492.2
    TBL_QUA_IBOE_KERO_DIESEL_P_3  TSTRM_QUA_IBOE_KERO_3    -1  PBAL_DIESEL_P_3          1
    TBL_QUA_IBOE_KERO_DIESEL_P_3  QUAL_DIESEL_P_3          -342.2
    SLACK_QUA_IBOE_DIESEL_3   COST                     -180  STRM_QUA_IBOE_DIESEL_3   -1
    HDT_QUA_IBOE_DIESEL_3     COST                     -240  STRM_QUA_IBOE_DIESEL_3   -1
    HDT_QUA_IBOE_DIESEL_3     TSTRM_QUA_IBOE_DIESEL_3  1  HDTCAP_3                 1
    BL_QUA_IBOE_DIESEL_DIESEL_P_3  STRM_QUA_IBOE_DIESEL_3   -1  PBAL_DIESEL_P_3          1
    BL_QUA_IBOE_DIESEL_DIESEL_P_3  QUAL_DIESEL_P_3          365
    BL_QUA_IBOE_DIESEL_FUELOIL_3  STRM_QUA_IBOE_DIESEL_3   -1  PBAL_FUELOIL_3           1
    BL_QUA_IBOE_DIESEL_FUELOIL_3  QUAL_FUELOIL_3           -34285
    TSLACK_QUA_IBOE_DIESEL_3  COST                     -180  TSTRM_QUA_IBOE_DIESEL_3  -1
    TBL_QUA_IBOE_DIESEL_DIESEL_P_3  TSTRM_QUA_IBOE_DIESEL_3  -1  PBAL_DIESEL_P_3          1
    TBL_QUA_IBOE_DIESEL_DIESEL_P_3  QUAL_DIESEL_P_3          -321.4
    TBL_QUA_IBOE_DIESEL_FUELOIL_3  TSTRM_QUA_IBOE_DIESEL_3  -1  PBAL_FUELOIL_3           1
    TBL_QUA_IBOE_DIESEL_FUELOIL_3  QUAL_FUELOIL_3           -34971.4
    SLACK_QUA_IBOE_VGO_3      COST                     -180  STRM_QUA_IBOE_VGO_3      -1
    HDT_QUA_IBOE_VGO_3        COST                     -240  STRM_QUA_IBOE_VGO_3      -1
    HDT_QUA_IBOE_VGO_3        TSTRM_QUA_IBOE_VGO_3     1  HDTCAP_3                 1
    FCC_QUA_IBOE_3            COST                     -310  STRM_QUA_IBOE_VGO_3      -1
    FCC_QUA_IBOE_3            FSTRM_QUA_IBOE_NAPHTHA_3 0.55  FSTRM_QUA_IBOE_DIESEL_3  0.25
    FCC_QUA_IBOE_3            FCCCAP_3                 1
    BL_QUA_IBOE_VGO_DIESEL_P_3  STRM_QUA_IBOE_VGO_3      -1  PBAL_DIESEL_P_3          1
    BL_QUA_IBOE_VGO_DIESEL_P_3  QUAL_DIESEL_P_3          1405
    BL_QUA_IBOE_VGO_FUELOIL_3  STRM_QUA_IBOE_VGO_3      -1  PBAL_FUELOIL_3           1
    BL_QUA_IBOE_VGO_FUELOIL_3  QUAL_FUELOIL_3           -33245
    TSLACK_QUA_IBOE_VGO_3     COST                     -180  TSTRM_QUA_IBOE_VGO_3     -1
    TBL_QUA_IBOE_VGO_DIESEL_P_3  TSTRM_QUA_IBOE_VGO_3     -1  PBAL_DIESEL_P_3          1
    TBL_QUA_IBOE_VGO_DIESEL_P_3  QUAL_DIESEL_P_3          -279.8
    TBL_QUA_IBOE_VGO_FUELOIL_3  TSTRM_QUA_IBOE_VGO_3     -1  PBAL_FUELOIL_3           1
    TBL_QUA_IBOE_VGO_FUELOIL_3  QUAL_FUELOIL_3           -34929.8
    SLACK_QUA_IBOE_RESIDUE_3  COST                     -180  STRM_QUA_IBOE_RESIDUE_3  -1
    HDT_QUA_IBOE_RESIDUE_3    COST                     -240  STRM_QUA_IBOE_RESIDUE_3  -1
    HDT_QUA_IBOE_RESIDUE_3    TSTRM_QUA_IBOE_RESIDUE_3 1  HDTCAP_3                 1
    BL_QUA_IBOE_RESIDUE_FUELOIL_3  STRM_QUA_IBOE_RESIDUE_3  -1  PBAL_FUELOIL_3           1
    BL_QUA_IBOE_RESIDUE_FUELOIL_3  QUAL_FUELOIL_3           -31620
    TSLACK_QUA_IBOE_RESIDUE_3  COST                     -180  TSTRM_QUA_IBOE_RESIDUE_3 -1
    TBL_QUA_IBOE_RESIDUE_FUELOIL_3  TSTRM_QUA_IBOE_RESIDUE_3 -1  PBAL_FUELOIL_3           1
    TBL_QUA_IBOE_RESIDUE_FUELOIL_3  QUAL_FUELOIL_3           -34864.8
    FSLACK_QUA_IBOE_NAPHTHA_3  COST                     -180  FSTRM_QUA_IBOE_NAPHTHA_3 -1
    FBL_QUA_IBOE_NAPHTHA_GASOLINE_3  FSTRM_QUA_IBOE_NAPHTHA_3 -1  PBAL_GASOLINE_3          1
    FBL_QUA_IBOE_NAPHTHA_GASOLINE_3  QUAL_GASOLINE_3          -40.9
    FBL_QUA_IBOE_NAPHTHA_JET_3  FSTRM_QUA_IBOE_NAPHTHA_3 -1  PBAL_JET_3               1
    FBL_QUA_IBOE_NAPHTHA_JET_3  QUAL_JET_3               -2490.9
    FSLACK_QUA_IBOE_DIESEL_3  COST                     -180  FSTRM_QUA_IBOE_DIESEL_3  -1
    FBL_QUA_IBOE_DIESEL_DIESEL_P_3  FSTRM_QUA_IBOE_DIESEL_3  -1  PBAL_DIESEL_P_3          1
    FBL_QUA_IBOE_DIESEL_DIESEL_P_3  QUAL_DIESEL_P_3          -99.75
    FBL_QUA_IBOE_DIESEL_FUELOIL_3  FSTRM_QUA_IBOE_DIESEL_3  -1  PBAL_FUELOIL_3           1
    FBL_QUA_IBOE_DIESEL_FUELOIL_3  QUAL_FUELOIL_3           -34749.75
    SELL_GASOLINE_3           COST                     9250  PBAL_GASOLINE_3          -1
    SELL_JET_3                COST                     8900  PBAL_JET_3               -1
    SELL_DIESEL_P_3           COST                     8600  PBAL_DIESEL_P_3          -1
    SELL_FUELOIL_3            COST                     4900  PBAL_FUELOIL_3           -1
    BUY_BOMBAY_HIGH_4         COST                     -6850  CBAL_BOMBAY_HIGH_4       1
    INVC_BOMBAY_HIGH_4        COST                     -82.2  CBAL_BOMBAY_HIGH_4       -1
    INVC_BOMBAY_HIGH_4        CBAL_BOMBAY_HIGH_5       1
    CHG_BOMBAY_HIGH_4         COST                     -145  CBAL_BOMBAY_HIGH_4       -1
    CHG_BOMBAY_HIGH_4         CDUCAP_4                 1  STRM_BOMBAY_HIGH_NAPHTHA_4 0.26
    CHG_BOMBAY_HIGH_4         STRM_BOMBAY_HIGH_KERO_4  0.18  STRM_BOMBAY_HIGH_DIESEL_4 0.24
    CHG_BOMBAY_HIGH_4         STRM_BOMBAY_HIGH_VGO_4   0.2  STRM_BOMBAY_HIGH_RESIDUE_4 0.12
    SLACK_BOMBAY_HIGH_NAPHTHA_4  COST                     -180  STRM_BOMBAY_HIGH_NAPHTHA_4 -1
    HDT_BOMBAY_HIGH_NAPHTHA_4  COST                     -240  STRM_BOMBAY_HIGH_NAPHTHA_4 -1
    HDT_BOMBAY_HIGH_NAPHTHA_4  TSTRM_BOMBAY_HIGH_NAPHTHA_4 1  HDTCAP_4                 1
    BL_BOMBAY_HIGH_NAPHTHA_GASOLINE_4  STRM_BOMBAY_HIGH_NAPHTHA_4 -1  PBAL_GASOLINE_4          1
    BL_BOMBAY_HIGH_NAPHTHA_GASOLINE_4  QUAL_GASOLINE_4          -32
    BL_BOMBAY_HIGH_NAPHTHA_JET_4  STRM_BOMBAY_HIGH_NAPHTHA_4 -1  PBAL_JET_4               1
    BL_BOMBAY_HIGH_NAPHTHA_JET_4  QUAL_JET_4               -2482
    TSLACK_BOMBAY_HIGH_NAPHTHA_4  COST                     -180  TSTRM_BOMBAY_HIGH_NAPHTHA_4 -1
    TBL_BOMBAY_HIGH_NAPHTHA_GASOLINE_4  TSTRM_BOMBAY_HIGH_NAPHTHA_4 -1  PBAL_GASOLINE_4          1
    TBL_BOMBAY_HIGH_NAPHTHA_GASOLINE_4  QUAL_GASOLINE_4          -49.28
    TBL_BOMBAY_HIGH_NAPHTHA_JET_4  TSTRM_BOMBAY_HIGH_NAPHTHA_4 -1  PBAL_JET_4               1
    TBL_BOMBAY_HIGH_NAPHTHA_JET_4  QUAL_JET_4               -2499.28
    SLACK_BOMBAY_HIGH_KERO_4  COST                     -180  STRM_BOMBAY_HIGH_KERO_4  -1
    HDT_BOMBAY_HIGH_KERO_4    COST                     -240  STRM_BOMBAY_HIGH_KERO_4  -1
    HDT_BOMBAY_HIGH_KERO_4    TSTRM_BOMBAY_HIGH_KERO_4 1  HDTCAP_4                 1
    BL_BOMBAY_HIGH_KERO_GASOLINE_4  STRM_BOMBAY_HIGH_KERO_4  -1  PBAL_GASOLINE_4          1
    BL_BOMBAY_HIGH_KERO_GASOLINE_4  QUAL_GASOLINE_4          85
    BL_BOMBAY_HIGH_KERO_JET_4  STRM_BOMBAY_HIGH_KERO_4  -1  PBAL_JET_4               1
    BL_BOMBAY_HIGH_KERO_JET_4  QUAL_JET_4               -2365
    BL_BOMBAY_HIGH_KERO_DIESEL_P_4  STRM_BOMBAY_HIGH_KERO_4  -1  PBAL_DIESEL_P_4          1
    BL_BOMBAY_HIGH_KERO_DIESEL_P_4  QUAL_DIESEL_P_4          -215
    TSLACK_BOMBAY_HIGH_KERO_4  COST                     -180  TSTRM_BOMBAY_HIGH_KERO_4 -1
    TBL_BOMBAY_HIGH_KERO_GASOLINE_4  TSTRM_BOMBAY_HIGH_KERO_4 -1  PBAL_GASOLINE_4          1
    TBL_BOMBAY_HIGH_KERO_GASOLINE_4  QUAL_GASOLINE_4          -44.6
    TBL_BOMBAY_HIGH_KERO_JET_4  TSTRM_BOMBAY_HIGH_KERO_4 -1  PBAL_JET_4               1
    TBL_BOMBAY_HIGH_KERO_JET_4  QUAL_JET_4               -2494.6
    TBL_BOMBAY_HIGH_KERO_DIESEL_P_4  TSTRM_BOMBAY_HIGH_KERO_4 -1  PBAL_DIESEL_P_4          1
    TBL_BOMBAY_HIGH_KERO_DIESEL_P_4  QUAL_DIESEL_P_4          -344.6
    SLACK_BOMBAY_HIGH_DIESEL_4  COST                     -180  STRM_BOMBAY_HIGH_DIESEL_4 -1
    HDT_BOMBAY_HIGH_DIESEL_4  COST                     -240  STRM_BOMBAY_HIGH_DIESEL_4 -1
    HDT_BOMBAY_HIGH_DIESEL_4  TSTRM_BOMBAY_HIGH_DIESEL_4 1  HDTCAP_4                 1
    BL_BOMBAY_HIGH_DIESEL_DIESEL_P_4  STRM_BOMBAY_HIGH_DIESEL_4 -1  PBAL_DIESEL_P_4          1
    BL_BOMBAY_HIGH_DIESEL_DIESEL_P_4  QUAL_DIESEL_P_4          145
    BL_BOMBAY_HIGH_DIESEL_FUELOIL_4  STRM_BOMBAY_HIGH_DIESEL_4 -1  PBAL_FUELOIL_4           1
    BL_BOMBAY_HIGH_DIESEL_FUELOIL_4  QUAL_FUELOIL_4           -34505
    TSLACK_BOMBAY_HIGH_DIESEL_4  COST                     -180  TSTRM_BOMBAY_HIGH_DIESEL_4 -1
    TBL_BOMBAY_HIGH_DIESEL_DIESEL_P_4  TSTRM_BOMBAY_HIGH_DIESEL_4 -1  PBAL_DIESEL_P_4          1
    TBL_BOMBAY_HIGH_DIESEL_DIESEL_P_4  QUAL_DIESEL_P_4          -330.2
    TBL_BOMBAY_HIGH_DIESEL_FUELOIL_4  TSTRM_BOMBAY_HIGH_DIESEL_4 -1  PBAL_FUELOIL_4           1
    TBL_BOMBAY_HIGH_DIESEL_FUELOIL_4  QUAL_FUELOIL_4           -34980.2
    SLACK_BOMBAY_HIGH_VGO_4   COST                     -180  STRM_BOMBAY_HIGH_VGO_4   -1
    HDT_BOMBAY_HIGH_VGO_4     COST                     -240  STRM_BOMBAY_HIGH_VGO_4   -1
    HDT_BOMBAY_HIGH_VGO_4     TSTRM_BOMBAY_HIGH_VGO_4  1  HDTCAP_4                 1
    FCC_BOMBAY_HIGH_4         COST                     -310  STRM_BOMBAY_HIGH_VGO_4   -1
    FCC_BOMBAY_HIGH_4         FSTRM_BOMBAY_HIGH_NAPHTHA_4 0.55  FSTRM_BOMBAY_HIGH_DIESEL_4 0.25
    FCC_BOMBAY_HIGH_4         FCCCAP_4                 1
    BL_BOMBAY_HIGH_VGO_DIESEL_P_4  STRM_BOMBAY_HIGH_VGO_4   -1  PBAL_DIESEL_P_4          1
    BL_BOMBAY_HIGH_VGO_DIESEL_P_4  QUAL_DIESEL_P_4          865
    BL_BOMBAY_HIGH_VGO_FUELOIL_4  STRM_BOMBAY_HIGH_VGO_4   -1  PBAL_FUELOIL_4           1
    BL_BOMBAY_HIGH_VGO_FUELOIL_4  QUAL_FUELOIL_4           -33785
    TSLACK_BOMBAY_HIGH_VGO_4  COST                     -180  TSTRM_BOMBAY_HIGH_VGO_4  -1
    TBL_BOMBAY_HIGH_VGO_DIESEL_P_4  TSTRM_BOMBAY_HIGH_VGO_4  -1  PBAL_DIESEL_P_4          1
    TBL_BOMBAY_HIGH_VGO_DIESEL_P_4  QUAL_DIESEL_P_4          -301.4
    TBL_BOMBAY_HIGH_VGO_FUELOIL_4  TSTRM_BOMBAY_HIGH_VGO_4  -1  PBAL_FUELOIL_4           1
    TBL_BOMBAY_HIGH_VGO_FUELOIL_4  QUAL_FUELOIL_4           -34951.4
    SLACK_BOMBAY_HIGH_RESIDUE_4  COST                     -180  STRM_BOMBAY_HIGH_RESIDUE_4 -1
    HDT_BOMBAY_HIGH_RESIDUE_4  COST                     -240  STRM_BOMBAY_HIGH_RESIDUE_4 -1
    HDT_BOMBAY_HIGH_RESIDUE_4  TSTRM_BOMBAY_HIGH_RESIDUE_4 1  HDTCAP_4                 1
    BL_BOMBAY_HIGH_RESIDUE_FUELOIL_4  STRM_BOMBAY_HIGH_RESIDUE_4 -1  PBAL_FUELOIL_4           1
    BL_BOMBAY_HIGH_RESIDUE_FUELOIL_4  QUAL_FUELOIL_4           -32660
    TSLACK_BOMBAY_HIGH_RESIDUE_4  COST                     -180  TSTRM_BOMBAY_HIGH_RESIDUE_4 -1
    TBL_BOMBAY_HIGH_RESIDUE_FUELOIL_4  TSTRM_BOMBAY_HIGH_RESIDUE_4 -1  PBAL_FUELOIL_4           1
    TBL_BOMBAY_HIGH_RESIDUE_FUELOIL_4  QUAL_FUELOIL_4           -34906.4
    FSLACK_BOMBAY_HIGH_NAPHTHA_4  COST                     -180  FSTRM_BOMBAY_HIGH_NAPHTHA_4 -1
    FBL_BOMBAY_HIGH_NAPHTHA_GASOLINE_4  FSTRM_BOMBAY_HIGH_NAPHTHA_4 -1  PBAL_GASOLINE_4          1
    FBL_BOMBAY_HIGH_NAPHTHA_GASOLINE_4  QUAL_GASOLINE_4          -43.7
    FBL_BOMBAY_HIGH_NAPHTHA_JET_4  FSTRM_BOMBAY_HIGH_NAPHTHA_4 -1  PBAL_JET_4               1
    FBL_BOMBAY_HIGH_NAPHTHA_JET_4  QUAL_JET_4               -2493.7
    FSLACK_BOMBAY_HIGH_DIESEL_4  COST                     -180  FSTRM_BOMBAY_HIGH_DIESEL_4 -1
    FBL_BOMBAY_HIGH_DIESEL_DIESEL_P_4  FSTRM_BOMBAY_HIGH_DIESEL_4 -1  PBAL_DIESEL_P_4          1
    FBL_BOMBAY_HIGH_DIESEL_DIESEL_P_4  QUAL_DIESEL_P_4          -176.75
    FBL_BOMBAY_HIGH_DIESEL_FUELOIL_4  FSTRM_BOMBAY_HIGH_DIESEL_4 -1  PBAL_FUELOIL_4           1
    FBL_BOMBAY_HIGH_DIESEL_FUELOIL_4  QUAL_FUELOIL_4           -34826.75
    BUY_ARAB_LIGHT_4          COST                     -6420  CBAL_ARAB_LIGHT_4        1
    INVC_ARAB_LIGHT_4         COST                     -77.04  CBAL_ARAB_LIGHT_4        -1
    INVC_ARAB_LIGHT_4         CBAL_ARAB_LIGHT_5        1
    CHG_ARAB_LIGHT_4          COST                     -145  CBAL_ARAB_LIGHT_4        -1
    CHG_ARAB_LIGHT_4          CDUCAP_4                 1  STRM_ARAB_LIGHT_NAPHTHA_4 0.22
    CHG_ARAB_LIGHT_4          STRM_ARAB_LIGHT_KERO_4   0.17  STRM_ARAB_LIGHT_DIESEL_4 0.23
    CHG_ARAB_LIGHT_4          STRM_ARAB_LIGHT_VGO_4    0.22  STRM_ARAB_LIGHT_RESIDUE_4 0.16
    SLACK_ARAB_LIGHT_NAPHTHA_4  COST                     -180  STRM_ARAB_LIGHT_NAPHTHA_4 -1
    HDT_ARAB_LIGHT_NAPHTHA_4  COST                     -240  STRM_ARAB_LIGHT_NAPHTHA_4 -1
    HDT_ARAB_LIGHT_NAPHTHA_4  TSTRM_ARAB_LIGHT_NAPHTHA_4 1  HDTCAP_4                 1
    BL_ARAB_LIGHT_NAPHTHA_GASOLINE_4  STRM_ARAB_LIGHT_NAPHTHA_4 -1  PBAL_GASOLINE_4          1
    BL_ARAB_LIGHT_NAPHTHA_GASOLINE_4  QUAL_GASOLINE_4          330
    BL_ARAB_LIGHT_NAPHTHA_JET_4  STRM_ARAB_LIGHT_NAPHTHA_4 -1  PBAL_JET_4               1
    BL_ARAB_LIGHT_NAPHTHA_JET_4  QUAL_JET_4               -2120
    TSLACK_ARAB_LIGHT_NAPHTHA_4  COST                     -180  TSTRM_ARAB_LIGHT_NAPHTHA_4 -1
    TBL_ARAB_LIGHT_NAPHTHA_GASOLINE_4  TSTRM_ARAB_LIGHT_NAPHTHA_4 -1  PBAL_GASOLINE_4          1
    TBL_ARAB_LIGHT_NAPHTHA_GASOLINE_4  QUAL_GASOLINE_4          -34.8
    TBL_ARAB_LIGHT_NAPHTHA_JET_4  TSTRM_ARAB_LIGHT_NAPHTHA_4 -1  PBAL_JET_4               1
    TBL_ARAB_LIGHT_NAPHTHA_JET_4  QUAL_JET_4               -2484.8
    SLACK_ARAB_LIGHT_KERO_4   COST                     -180  STRM_ARAB_LIGHT_KERO_4   -1
    HDT_ARAB_LIGHT_KERO_4     COST                     -240  STRM_ARAB_LIGHT_KERO_4   -1
    HDT_ARAB_LIGHT_KERO_4     TSTRM_ARAB_LIGHT_KERO_4  1  HDTCAP_4                 1
    BL_ARAB_LIGHT_KERO_GASOLINE_4  STRM_ARAB_LIGHT_KERO_4   -1  PBAL_GASOLINE_4          1
    BL_ARAB_LIGHT_KERO_GASOLINE_4  QUAL_GASOLINE_4          2800
    BL_ARAB_LIGHT_KERO_JET_4  STRM_ARAB_LIGHT_KERO_4   -1  PBAL_JET_4               1
    BL_ARAB_LIGHT_KERO_JET_4  QUAL_JET_4               350
    BL_ARAB_LIGHT_KERO_DIESEL_P_4  STRM_ARAB_LIGHT_KERO_4   -1  PBAL_DIESEL_P_4          1
    BL_ARAB_LIGHT_KERO_DIESEL_P_4  QUAL_DIESEL_P_4          2500
    TSLACK_ARAB_LIGHT_KERO_4  COST                     -180  TSTRM_ARAB_LIGHT_KERO_4  -1
    TBL_ARAB_LIGHT_KERO_GASOLINE_4  TSTRM_ARAB_LIGHT_KERO_4  -1  PBAL_GASOLINE_4          1
    TBL_ARAB_LIGHT_KERO_GASOLINE_4  QUAL_GASOLINE_4          64
    TBL_ARAB_LIGHT_KERO_JET_4  TSTRM_ARAB_LIGHT_KERO_4  -1  PBAL_JET_4               1
    TBL_ARAB_LIGHT_KERO_JET_4  QUAL_JET_4               -2386
    TBL_ARAB_LIGHT_KERO_DIESEL_P_4  TSTRM_ARAB_LIGHT_KERO_4  -1  PBAL_DIESEL_P_4          1
    TBL_ARAB_LIGHT_KERO_DIESEL_P_4  QUAL_DIESEL_P_4          -236
    SLACK_ARAB_LIGHT_DIESEL_4  COST                     -180  STRM_ARAB_LIGHT_DIESEL_4 -1
    HDT_ARAB_LIGHT_DIESEL_4   COST                     -240  STRM_ARAB_LIGHT_DIESEL_4 -1
    HDT_ARAB_LIGHT_DIESEL_4   TSTRM_ARAB_LIGHT_DIESEL_4 1  HDTCAP_4                 1
    BL_ARAB_LIGHT_DIESEL_DIESEL_P_4  STRM_ARAB_LIGHT_DIESEL_4 -1  PBAL_DIESEL_P_4          1
    BL_ARAB_LIGHT_DIESEL_DIESEL_P_4  QUAL_DIESEL_P_4          10100
    BL_ARAB_LIGHT_DIESEL_FUELOIL_4  STRM_ARAB_LIGHT_DIESEL_4 -1  PBAL_FUELOIL_4           1
    BL_ARAB_LIGHT_DIESEL_FUELOIL_4  QUAL_FUELOIL_4           -24550
    TSLACK_ARAB_LIGHT_DIESEL_4  COST                     -180  TSTRM_ARAB_LIGHT_DIESEL_4 -1
    TBL_ARAB_LIGHT_DIESEL_DIESEL_P_4  TSTRM_ARAB_LIGHT_DIESEL_4 -1  PBAL_DIESEL_P_4          1
    TBL_ARAB_LIGHT_DIESEL_DIESEL_P_4  QUAL_DIESEL_P_4          68
    TBL_ARAB_LIGHT_DIESEL_FUELOIL_4  TSTRM_ARAB_LIGHT_DIESEL_4 -1  PBAL_FUELOIL_4           1
    TBL_ARAB_LIGHT_DIESEL_FUELOIL_4  QUAL_FUELOIL_4           -34582
    SLACK_ARAB_LIGHT_VGO_4    COST                     -180  STRM_ARAB_LIGHT_VGO_4    -1
    HDT_ARAB_LIGHT_VGO_4      COST                     -240  STRM_ARAB_LIGHT_VGO_4    -1
    HDT_ARAB_LIGHT_VGO_4      TSTRM_ARAB_LIGHT_VGO_4   1  HDTCAP_4                 1
    FCC_ARAB_LIGHT_4          COST                     -310  STRM_ARAB_LIGHT_VGO_4    -1
    FCC_ARAB_LIGHT_4          FSTRM_ARAB_LIGHT_NAPHTHA_4 0.55  FSTRM_ARAB_LIGHT_DIESEL_4 0.25
    FCC_ARAB_LIGHT_4          FCCCAP_4                 1
    BL_ARAB_LIGHT_VGO_DIESEL_P_4  STRM_ARAB_LIGHT_VGO_4    -1  PBAL_DIESEL_P_4          1
    BL_ARAB_LIGHT_VGO_DIESEL_P_4  QUAL_DIESEL_P_4          25300
    BL_ARAB_LIGHT_VGO_FUELOIL_4  STRM_ARAB_LIGHT_VGO_4    -1  PBAL_FUELOIL_4           1
    BL_ARAB_LIGHT_VGO_FUELOIL_4  QUAL_FUELOIL_4           -9350
    TSLACK_ARAB_LIGHT_VGO_4   COST                     -180  TSTRM_ARAB_LIGHT_VGO_4   -1
    TBL_ARAB_LIGHT_VGO_DIESEL_P_4  TSTRM_ARAB_LIGHT_VGO_4   -1  PBAL_DIESEL_P_4          1
    TBL_ARAB_LIGHT_VGO_DIESEL_P_4  QUAL_DIESEL_P_4          676
    TBL_ARAB_LIGHT_VGO_FUELOIL_4  TSTRM_ARAB_LIGHT_VGO_4   -1  PBAL_FUELOIL_4           1
    TBL_ARAB_LIGHT_VGO_FUELOIL_4  QUAL_FUELOIL_4           -33974
    SLACK_ARAB_LIGHT_RESIDUE_4  COST                     -180  STRM_ARAB_LIGHT_RESIDUE_4 -1
    HDT_ARAB_LIGHT_RESIDUE_4  COST                     -240  STRM_ARAB_LIGHT_RESIDUE_4 -1
    HDT_ARAB_LIGHT_RESIDUE_4  TSTRM_ARAB_LIGHT_RESIDUE_4 1  HDTCAP_4                 1
    BL_ARAB_LIGHT_RESIDUE_FUELOIL_4  STRM_ARAB_LIGHT_RESIDUE_4 -1  PBAL_FUELOIL_4           1
    BL_ARAB_LIGHT_RESIDUE_FUELOIL_4  QUAL_FUELOIL_4           14400
    TSLACK_ARAB_LIGHT_RESIDUE_4  COST                     -180  TSTRM_ARAB_LIGHT_RESIDUE_4 -1
    TBL_ARAB_LIGHT_RESIDUE_FUELOIL_4  TSTRM_ARAB_LIGHT_RESIDUE_4 -1  PBAL_FUELOIL_4           1
    TBL_ARAB_LIGHT_RESIDUE_FUELOIL_4  QUAL_FUELOIL_4           -33024
    FSLACK_ARAB_LIGHT_NAPHTHA_4  COST                     -180  FSTRM_ARAB_LIGHT_NAPHTHA_4 -1
    FBL_ARAB_LIGHT_NAPHTHA_GASOLINE_4  FSTRM_ARAB_LIGHT_NAPHTHA_4 -1  PBAL_GASOLINE_4          1
    FBL_ARAB_LIGHT_NAPHTHA_GASOLINE_4  QUAL_GASOLINE_4          83
    FBL_ARAB_LIGHT_NAPHTHA_JET_4  FSTRM_ARAB_LIGHT_NAPHTHA_4 -1  PBAL_JET_4               1
    FBL_ARAB_LIGHT_NAPHTHA_JET_4  QUAL_JET_4               -2367
    FSLACK_ARAB_LIGHT_DIESEL_4  COST                     -180  FSTRM_ARAB_LIGHT_DIESEL_4 -1
    FBL_ARAB_LIGHT_DIESEL_DIESEL_P_4  FSTRM_ARAB_LIGHT_DIESEL_4 -1  PBAL_DIESEL_P_4          1
    FBL_ARAB_LIGHT_DIESEL_DIESEL_P_4  QUAL_DIESEL_P_4          3307.5
    FBL_ARAB_LIGHT_DIESEL_FUELOIL_4  FSTRM_ARAB_LIGHT_DIESEL_4 -1  PBAL_FUELOIL_4           1
    FBL_ARAB_LIGHT_DIESEL_FUELOIL_4  QUAL_FUELOIL_4           -31342.5
    BUY_ARAB_HEAVY_4          COST                     -5980  CBAL_ARAB_HEAVY_4        1
    INVC_ARAB_HEAVY_4         COST                     -71.76  CBAL_ARAB_HEAVY_4        -1
    INVC_ARAB_HEAVY_4         CBAL_ARAB_HEAVY_5        1
    CHG_ARAB_HEAVY_4          COST                     -145  CBAL_ARAB_HEAVY_4        -1
    CHG_ARAB_HEAVY_4          CDUCAP_4                 1  STRM_ARAB_HEAVY_NAPHTHA_4 0.16
    CHG_ARAB_HEAVY_4          STRM_ARAB_HEAVY_KERO_4   0.14  STRM_ARAB_HEAVY_DIESEL_4 0.21
    CHG_ARAB_HEAVY_4          STRM_ARAB_HEAVY_VGO_4    0.25  STRM_ARAB_HEAVY_RESIDUE_4 0.24
    SLACK_ARAB_HEAVY_NAPHTHA_4  COST                     -180  STRM_ARAB_HEAVY_NAPHTHA_4 -1
    HDT_ARAB_HEAVY_NAPHTHA_4  COST                     -240  STRM_ARAB_HEAVY_NAPHTHA_4 -1
    HDT_ARAB_HEAVY_NAPHTHA_4  TSTRM_ARAB_HEAVY_NAPHTHA_4 1  HDTCAP_4                 1
    BL_ARAB_HEAVY_NAPHTHA_GASOLINE_4  STRM_ARAB_HEAVY_NAPHTHA_4 -1  PBAL_GASOLINE_4          1
    BL_ARAB_HEAVY_NAPHTHA_GASOLINE_4  QUAL_GASOLINE_4          530
    BL_ARAB_HEAVY_NAPHTHA_JET_4  STRM_ARAB_HEAVY_NAPHTHA_4 -1  PBAL_JET_4               1
    BL_ARAB_HEAVY_NAPHTHA_JET_4  QUAL_JET_4               -1920
    TSLACK_ARAB_HEAVY_NAPHTHA_4  COST                     -180  TSTRM_ARAB_HEAVY_NAPHTHA_4 -1
    TBL_ARAB_HEAVY_NAPHTHA_GASOLINE_4  TSTRM_ARAB_HEAVY_NAPHTHA_4 -1  PBAL_GASOLINE_4          1
    TBL_ARAB_HEAVY_NAPHTHA_GASOLINE_4  QUAL_GASOLINE_4          -26.8
    TBL_ARAB_HEAVY_NAPHTHA_JET_4  TSTRM_ARAB_HEAVY_NAPHTHA_4 -1  PBAL_JET_4               1
    TBL_ARAB_HEAVY_NAPHTHA_JET_4  QUAL_JET_4               -2476.8
    SLACK_ARAB_HEAVY_KERO_4   COST                     -180  STRM_ARAB_HEAVY_KERO_4   -1
    HDT_ARAB_HEAVY_KERO_4     COST                     -240  STRM_ARAB_HEAVY_KERO_4   -1
    HDT_ARAB_HEAVY_KERO_4     TSTRM_ARAB_HEAVY_KERO_4  1  HDTCAP_4                 1
    BL_ARAB_HEAVY_KERO_GASOLINE_4  STRM_ARAB_HEAVY_KERO_4   -1  PBAL_GASOLINE_4          1
    BL_ARAB_HEAVY_KERO_GASOLINE_4  QUAL_GASOLINE_4          4300
    BL_ARAB_HEAVY_KERO_JET_4  STRM_ARAB_HEAVY_KERO_4   -1  PBAL_JET_4               1
    BL_ARAB_HEAVY_KERO_JET_4  QUAL_JET_4               1850
    BL_ARAB_HEAVY_KERO_DIESEL_P_4  STRM_ARAB_HEAVY_KERO_4   -1  PBAL_DIESEL_P_4          1
    BL_ARAB_HEAVY_KERO_DIESEL_P_4  QUAL_DIESEL_P_4          4000
    TSLACK_ARAB_HEAVY_KERO_4  COST                     -180  TSTRM_ARAB_HEAVY_KERO_4  -1
    TBL_ARAB_HEAVY_KERO_GASOLINE_4  TSTRM_ARAB_HEAVY_KERO_4  -1  PBAL_GASOLINE_4          1
    TBL_ARAB_HEAVY_KERO_GASOLINE_4  QUAL_GASOLINE_4          124
    TBL_ARAB_HEAVY_KERO_JET_4  TSTRM_ARAB_HEAVY_KERO_4  -1  PBAL_JET_4               1
    TBL_ARAB_HEAVY_KERO_JET_4  QUAL_JET_4               -2326
    TBL_ARAB_HEAVY_KERO_DIESEL_P_4  TSTRM_ARAB_HEAVY_KERO_4  -1  PBAL_DIESEL_P_4          1
    TBL_ARAB_HEAVY_KERO_DIESEL_P_4  QUAL_DIESEL_P_4          -176
    SLACK_ARAB_HEAVY_DIESEL_4  COST                     -180  STRM_ARAB_HEAVY_DIESEL_4 -1
    HDT_ARAB_HEAVY_DIESEL_4   COST                     -240  STRM_ARAB_HEAVY_DIESEL_4 -1
    HDT_ARAB_HEAVY_DIESEL_4   TSTRM_ARAB_HEAVY_DIESEL_4 1  HDTCAP_4                 1
    BL_ARAB_HEAVY_DIESEL_DIESEL_P_4  STRM_ARAB_HEAVY_DIESEL_4 -1  PBAL_DIESEL_P_4          1
    BL_ARAB_HEAVY_DIESEL_DIESEL_P_4  QUAL_DIESEL_P_4          15600
    BL_ARAB_HEAVY_DIESEL_FUELOIL_4  STRM_ARAB_HEAVY_DIESEL_4 -1  PBAL_FUELOIL_4           1
    BL_ARAB_HEAVY_DIESEL_FUELOIL_4  QUAL_FUELOIL_4           -19050
    TSLACK_ARAB_HEAVY_DIESEL_4  COST                     -180  TSTRM_ARAB_HEAVY_DIESEL_4 -1
    TBL_ARAB_HEAVY_DIESEL_DIESEL_P_4  TSTRM_ARAB_HEAVY_DIESEL_4 -1  PBAL_DIESEL_P_4          1
    TBL_ARAB_HEAVY_DIESEL_DIESEL_P_4  QUAL_DIESEL_P_4          288
    TBL_ARAB_HEAVY_DIESEL_FUELOIL_4  TSTRM_ARAB_HEAVY_DIESEL_4 -1  PBAL_FUELOIL_4           1
    TBL_ARAB_HEAVY_DIESEL_FUELOIL_4  QUAL_FUELOIL_4           -34362
    SLACK_ARAB_HEAVY_VGO_4    COST                     -180  STRM_ARAB_HEAVY_VGO_4    -1
    HDT_ARAB_HEAVY_VGO_4      COST                     -240  STRM_ARAB_HEAVY_VGO_4    -1
    HDT_ARAB_HEAVY_VGO_4      TSTRM_ARAB_HEAVY_VGO_4   1  HDTCAP_4                 1
    FCC_ARAB_HEAVY_4          COST                     -310  STRM_ARAB_HEAVY_VGO_4    -1
    FCC_ARAB_HEAVY_4          FSTRM_ARAB_HEAVY_NAPHTHA_4 0.55  FSTRM_ARAB_HEAVY_DIESEL_4 0.25
    FCC_ARAB_HEAVY_4          FCCCAP_4                 1
    BL_ARAB_HEAVY_VGO_DIESEL_P_4  STRM_ARAB_HEAVY_VGO_4    -1  PBAL_DIESEL_P_4          1
    BL_ARAB_HEAVY_VGO_DIESEL_P_4  QUAL_DIESEL_P_4          38800
    BL_ARAB_HEAVY_VGO_FUELOIL_4  STRM_ARAB_HEAVY_VGO_4    -1  PBAL_FUELOIL_4           1
    BL_ARAB_HEAVY_VGO_FUELOIL_4  QUAL_FUELOIL_4           4150
    TSLACK_ARAB_HEAVY_VGO_4   COST                     -180  TSTRM_ARAB_HEAVY_VGO_4   -1
    TBL_ARAB_HEAVY_VGO_DIESEL_P_4  TSTRM_ARAB_HEAVY_VGO_4   -1  PBAL_DIESEL_P_4          1
    TBL_ARAB_HEAVY_VGO_DIESEL_P_4  QUAL_DIESEL_P_4          1216
    TBL_ARAB_HEAVY_VGO_FUELOIL_4  TSTRM_ARAB_HEAVY_VGO_4   -1  PBAL_FUELOIL_4           1
    TBL_ARAB_HEAVY_VGO_FUELOIL_4  QUAL_FUELOIL_4           -33434
    SLACK_ARAB_HEAVY_RESIDUE_4  COST                     -180  STRM_ARAB_HEAVY_RESIDUE_4 -1
    HDT_ARAB_HEAVY_RESIDUE_4  COST                     -240  STRM_ARAB_HEAVY_RESIDUE_4 -1
    HDT_ARAB_HEAVY_RESIDUE_4  TSTRM_ARAB_HEAVY_RESIDUE_4 1  HDTCAP_4                 1
    BL_ARAB_HEAVY_RESIDUE_FUELOIL_4  STRM_ARAB_HEAVY_RESIDUE_4 -1  PBAL_FUELOIL_4           1
    BL_ARAB_HEAVY_RESIDUE_FUELOIL_4  QUAL_FUELOIL_4           40400
    TSLACK_ARAB_HEAVY_RESIDUE_4  COST                     -180  TSTRM_ARAB_HEAVY_RESIDUE_4 -1
    TBL_ARAB_HEAVY_RESIDUE_FUELOIL_4  TSTRM_ARAB_HEAVY_RESIDUE_4 -1  PBAL_FUELOIL_4           1
    TBL_ARAB_HEAVY_RESIDUE_FUELOIL_4  QUAL_FUELOIL_4           -31984
    FSLACK_ARAB_HEAVY_NAPHTHA_4  COST                     -180  FSTRM_ARAB_HEAVY_NAPHTHA_4 -1
    FBL_ARAB_HEAVY_NAPHTHA_GASOLINE_4  FSTRM_ARAB_HEAVY_NAPHTHA_4 -1  PBAL_GASOLINE_4          1
    FBL_ARAB_HEAVY_NAPHTHA_GASOLINE_4  QUAL_GASOLINE_4          153
    FBL_ARAB_HEAVY_NAPHTHA_JET_4  FSTRM_ARAB_HEAVY_NAPHTHA_4 -1  PBAL_JET_4               1
    FBL_ARAB_HEAVY_NAPHTHA_JET_4  QUAL_JET_4               -2297
    FSLACK_ARAB_HEAVY_DIESEL_4  COST                     -180  FSTRM_ARAB_HEAVY_DIESEL_4 -1
    FBL_ARAB_HEAVY_DIESEL_DIESEL_P_4  FSTRM_ARAB_HEAVY_DIESEL_4 -1  PBAL_DIESEL_P_4          1
    FBL_ARAB_HEAVY_DIESEL_DIESEL_P_4  QUAL_DIESEL_P_4          5232.5
    FBL_ARAB_HEAVY_DIESEL_FUELOIL_4  FSTRM_ARAB_HEAVY_DIESEL_4 -1  PBAL_FUELOIL_4           1
    FBL_ARAB_HEAVY_DIESEL_FUELOIL_4  QUAL_FUELOIL_4           -29417.5
    BUY_BASRAH_4              COST                     -6100  CBAL_BASRAH_4            1
    INVC_BASRAH_4             COST                     -73.2  CBAL_BASRAH_4            -1
    INVC_BASRAH_4             CBAL_BASRAH_5            1
    CHG_BASRAH_4              COST                     -145  CBAL_BASRAH_4            -1
    CHG_BASRAH_4              CDUCAP_4                 1  STRM_BASRAH_NAPHTHA_4    0.18
    CHG_BASRAH_4              STRM_BASRAH_KERO_4       0.15  STRM_BASRAH_DIESEL_4     0.22
    CHG_BASRAH_4              STRM_BASRAH_VGO_4        0.24  STRM_BASRAH_RESIDUE_4    0.21
    SLACK_BASRAH_NAPHTHA_4    COST                     -180  STRM_BASRAH_NAPHTHA_4    -1
    HDT_BASRAH_NAPHTHA_4      COST                     -240  STRM_BASRAH_NAPHTHA_4    -1
    HDT_BASRAH_NAPHTHA_4      TSTRM_BASRAH_NAPHTHA_4   1  HDTCAP_4                 1
    BL_BASRAH_NAPHTHA_GASOLINE_4  STRM_BASRAH_NAPHTHA_4    -1  PBAL_GASOLINE_4          1
    BL_BASRAH_NAPHTHA_GASOLINE_4  QUAL_GASOLINE_4          440
    BL_BASRAH_NAPHTHA_JET_4   STRM_BASRAH_NAPHTHA_4    -1  PBAL_JET_4               1
    BL_BASRAH_NAPHTHA_JET_4   QUAL_JET_4               -2010
    TSLACK_BASRAH_NAPHTHA_4   COST                     -180  TSTRM_BASRAH_NAPHTHA_4   -1
    TBL_BASRAH_NAPHTHA_GASOLINE_4  TSTRM_BASRAH_NAPHTHA_4   -1  PBAL_GASOLINE_4          1
    TBL_BASRAH_NAPHTHA_GASOLINE_4  QUAL_GASOLINE_4          -30.4
    TBL_BASRAH_NAPHTHA_JET_4  TSTRM_BASRAH_NAPHTHA_4   -1  PBAL_JET_4               1
    TBL_BASRAH_NAPHTHA_JET_4  QUAL_JET_4               -2480.4
    SLACK_BASRAH_KERO_4       COST                     -180  STRM_BASRAH_KERO_4       -1
    HDT_BASRAH_KERO_4         COST                     -240  STRM_BASRAH_KERO_4       -1
    HDT_BASRAH_KERO_4         TSTRM_BASRAH_KERO_4      1  HDTCAP_4                 1
    BL_BASRAH_KERO_GASOLINE_4  STRM_BASRAH_KERO_4       -1  PBAL_GASOLINE_4          1
    BL_BASRAH_KERO_GASOLINE_4  QUAL_GASOLINE_4          3625
    BL_BASRAH_KERO_JET_4      STRM_BASRAH_KERO_4       -1  PBAL_JET_4               1
    BL_BASRAH_KERO_JET_4      QUAL_JET_4               1175
    BL_BASRAH_KERO_DIESEL_P_4  STRM_BASRAH_KERO_4       -1  PBAL_DIESEL_P_4          1
    BL_BASRAH_KERO_DIESEL_P_4  QUAL_DIESEL_P_4          3325
    TSLACK_BASRAH_KERO_4      COST                     -180  TSTRM_BASRAH_KERO_4      -1
    TBL_BASRAH_KERO_GASOLINE_4  TSTRM_BASRAH_KERO_4      -1  PBAL_GASOLINE_4          1
    TBL_BASRAH_KERO_GASOLINE_4  QUAL_GASOLINE_4          97
    TBL_BASRAH_KERO_JET_4     TSTRM_BASRAH_KERO_4      -1  PBAL_JET_4               1
    TBL_BASRAH_KERO_JET_4     QUAL_JET_4               -2353
    TBL_BASRAH_KERO_DIESEL_P_4  TSTRM_BASRAH_KERO_4      -1  PBAL_DIESEL_P_4          1
    TBL_BASRAH_KERO_DIESEL_P_4  QUAL_DIESEL_P_4          -203
    SLACK_BASRAH_DIESEL_4     COST                     -180  STRM_BASRAH_DIESEL_4     -1
    HDT_BASRAH_DIESEL_4       COST                     -240  STRM_BASRAH_DIESEL_4     -1
    HDT_BASRAH_DIESEL_4       TSTRM_BASRAH_DIESEL_4    1  HDTCAP_4                 1
    BL_BASRAH_DIESEL_DIESEL_P_4  STRM_BASRAH_DIESEL_4     -1  PBAL_DIESEL_P_4          1
    BL_BASRAH_DIESEL_DIESEL_P_4  QUAL_DIESEL_P_4          13125
    BL_BASRAH_DIESEL_FUELOIL_4  STRM_BASRAH_DIESEL_4     -1  PBAL_FUELOIL_4           1
    BL_BASRAH_DIESEL_FUELOIL_4  QUAL_FUELOIL_4           -21525
    TSLACK_BASRAH_DIESEL_4    COST                     -180  TSTRM_BASRAH_DIESEL_4    -1
    TBL_BASRAH_DIESEL_DIESEL_P_4  TSTRM_BASRAH_DIESEL_4    -1  PBAL_DIESEL_P_4          1
    TBL_BASRAH_DIESEL_DIESEL_P_4  QUAL_DIESEL_P_4          189
    TBL_BASRAH_DIESEL_FUELOIL_4  TSTRM_BASRAH_DIESEL_4    -1  PBAL_FUELOIL_4           1
    TBL_BASRAH_DIESEL_FUELOIL_4  QUAL_FUELOIL_4           -34461
    SLACK_BASRAH_VGO_4        COST                     -180  STRM_BASRAH_VGO_4        -1
    HDT_BASRAH_VGO_4          COST                     -240  STRM_BASRAH_VGO_4        -1
    HDT_BASRAH_VGO_4          TSTRM_BASRAH_VGO_4       1  HDTCAP_4                 1
    FCC_BASRAH_4              COST                     -310  STRM_BASRAH_VGO_4        -1
    FCC_BASRAH_4              FSTRM_BASRAH_NAPHTHA_4   0.55  FSTRM_BASRAH_DIESEL_4    0.25
    FCC_BASRAH_4              FCCCAP_4                 1
    BL_BASRAH_VGO_DIESEL_P_4  STRM_BASRAH_VGO_4        -1  PBAL_DIESEL_P_4          1
    BL_BASRAH_VGO_DIESEL_P_4  QUAL_DIESEL_P_4          32725
    BL_BASRAH_VGO_FUELOIL_4   STRM_BASRAH_VGO_4        -1  PBAL_FUELOIL_4           1
    BL_BASRAH_VGO_FUELOIL_4   QUAL_FUELOIL_4           -1925
    TSLACK_BASRAH_VGO_4       COST                     -180  TSTRM_BASRAH_VGO_4       -1
    TBL_BASRAH_VGO_DIESEL_P_4  TSTRM_BASRAH_VGO_4       -1  PBAL_DIESEL_P_4          1
    TBL_BASRAH_VGO_DIESEL_P_4  QUAL_DIESEL_P_4          973
    TBL_BASRAH_VGO_FUELOIL_4  TSTRM_BASRAH_VGO_4       -1  PBAL_FUELOIL_4           1
    TBL_BASRAH_VGO_FUELOIL_4  QUAL_FUELOIL_4           -33677
    SLACK_BASRAH_RESIDUE_4    COST                     -180  STRM_BASRAH_RESIDUE_4    -1
    HDT_BASRAH_RESIDUE_4      COST                     -240  STRM_BASRAH_RESIDUE_4    -1
    HDT_BASRAH_RESIDUE_4      TSTRM_BASRAH_RESIDUE_4   1  HDTCAP_4                 1
    BL_BASRAH_RESIDUE_FUELOIL_4  STRM_BASRAH_RESIDUE_4    -1  PBAL_FUELOIL_4           1
    BL_BASRAH_RESIDUE_FUELOIL_4  QUAL_FUELOIL_4           28700
    TSLACK_BASRAH_RESIDUE_4   COST                     -180  TSTRM_BASRAH_RESIDUE_4   -1
    TBL_BASRAH_RESIDUE_FUELOIL_4  TSTRM_BASRAH_RESIDUE_4   -1  PBAL_FUELOIL_4           1
    TBL_BASRAH_RESIDUE_FUELOIL_4  QUAL_FUELOIL_4           -32452
    FSLACK_BASRAH_NAPHTHA_4   COST                     -180  FSTRM_BASRAH_NAPHTHA_4   -1
    FBL_BASRAH_NAPHTHA_GASOLINE_4  FSTRM_BASRAH_NAPHTHA_4   -1  PBAL_GASOLINE_4          1
    FBL_BASRAH_NAPHTHA_GASOLINE_4  QUAL_GASOLINE_4          121.5
    FBL_BASRAH_NAPHTHA_JET_4  FSTRM_BASRAH_NAPHTHA_4   -1  PBAL_JET_4               1
    FBL_BASRAH_NAPHTHA_JET_4  QUAL_JET_4               -2328.5
    FSLACK_BASRAH_DIESEL_4    COST                     -180  FSTRM_BASRAH_DIESEL_4    -1
    FBL_BASRAH_DIESEL_DIESEL_P_4  FSTRM_BASRAH_DIESEL_4    -1  PBAL_DIESEL_P_4          1
    FBL_BASRAH_DIESEL_DIESEL_P_4  QUAL_DIESEL_P_4          4366.25
    FBL_BASRAH_DIESEL_FUELOIL_4  FSTRM_BASRAH_DIESEL_4    -1  PBAL_FUELOIL_4           1
    FBL_BASRAH_DIESEL_FUELOIL_4  QUAL_FUELOIL_4           -30283.75
    BUY_URALS_4               COST                     -6260  CBAL_URALS_4             1
    INVC_URALS_4              COST                     -75.12  CBAL_URALS_4             -1
    INVC_URALS_4              CBAL_URALS_5             1
    CHG_URALS_4               COST                     -145  CBAL_URALS_4             -1
    CHG_URALS_4               CDUCAP_4                 1  STRM_URALS_NAPHTHA_4     0.2
    CHG_URALS_4               STRM_URALS_KERO_4        0.16  STRM_URALS_DIESEL_4      0.24
    CHG_URALS_4               STRM_URALS_VGO_4         0.23  STRM_URALS_RESIDUE_4     0.17
    SLACK_URALS_NAPHTHA_4     COST                     -180  STRM_URALS_NAPHTHA_4     -1
    HDT_URALS_NAPHTHA_4       COST                     -240  STRM_URALS_NAPHTHA_4     -1
    HDT_URALS_NAPHTHA_4       TSTRM_URALS_NAPHTHA_4    1  HDTCAP_4                 1
    BL_URALS_NAPHTHA_GASOLINE_4  STRM_URALS_NAPHTHA_4     -1  PBAL_GASOLINE_4          1
    BL_URALS_NAPHTHA_GASOLINE_4  QUAL_GASOLINE_4          226
    BL_URALS_NAPHTHA_JET_4    STRM_URALS_NAPHTHA_4     -1  PBAL_JET_4               1
    BL_URALS_NAPHTHA_JET_4    QUAL_JET_4               -2224
    TSLACK_URALS_NAPHTHA_4    COST                     -180  TSTRM_URALS_NAPHTHA_4    -1
    TBL_URALS_NAPHTHA_GASOLINE_4  TSTRM_URALS_NAPHTHA_4    -1  PBAL_GASOLINE_4          1
    TBL_URALS_NAPHTHA_GASOLINE_4  QUAL_GASOLINE_4          -38.96
    TBL_URALS_NAPHTHA_JET_4   TSTRM_URALS_NAPHTHA_4    -1  PBAL_JET_4               1
    TBL_URALS_NAPHTHA_JET_4   QUAL_JET_4               -2488.96
    SLACK_URALS_KERO_4        COST                     -180  STRM_URALS_KERO_4        -1
    HDT_URALS_KERO_4          COST                     -240  STRM_URALS_KERO_4        -1
    HDT_URALS_KERO_4          TSTRM_URALS_KERO_4       1  HDTCAP_4                 1
    BL_URALS_KERO_GASOLINE_4  STRM_URALS_KERO_4        -1  PBAL_GASOLINE_4          1
    BL_URALS_KERO_GASOLINE_4  QUAL_GASOLINE_4          2020
    BL_URALS_KERO_JET_4       STRM_URALS_KERO_4        -1  PBAL_JET_4               1
    BL_URALS_KERO_JET_4       QUAL_JET_4               -430
    BL_URALS_KERO_DIESEL_P_4  STRM_URALS_KERO_4        -1  PBAL_DIESEL_P_4          1
    BL_URALS_KERO_DIESEL_P_4  QUAL_DIESEL_P_4          1720
    TSLACK_URALS_KERO_4       COST                     -180  TSTRM_URALS_KERO_4       -1
    TBL_URALS_KERO_GASOLINE_4  TSTRM_URALS_KERO_4       -1  PBAL_GASOLINE_4          1
    TBL_URALS_KERO_GASOLINE_4  QUAL_GASOLINE_4          32.8
    TBL_URALS_KERO_JET_4      TSTRM_URALS_KERO_4       -1  PBAL_JET_4               1
    TBL_URALS_KERO_JET_4      QUAL_JET_4               -2417.2
    TBL_URALS_KERO_DIESEL_P_4  TSTRM_URALS_KERO_4       -1  PBAL_DIESEL_P_4          1
    TBL_URALS_KERO_DIESEL_P_4  QUAL_DIESEL_P_4          -267.2
    SLACK_URALS_DIESEL_4      COST                     -180  STRM_URALS_DIESEL_4      -1
    HDT_URALS_DIESEL_4        COST                     -240  STRM_URALS_DIESEL_4      -1
    HDT_URALS_DIESEL_4        TSTRM_URALS_DIESEL_4     1  HDTCAP_4                 1
    BL_URALS_DIESEL_DIESEL_P_4  STRM_URALS_DIESEL_4      -1  PBAL_DIESEL_P_4          1
    BL_URALS_DIESEL_DIESEL_P_4  QUAL_DIESEL_P_4          7240
    BL_URALS_DIESEL_FUELOIL_4  STRM_URALS_DIESEL_4      -1  PBAL_FUELOIL_4           1
    BL_URALS_DIESEL_FUELOIL_4  QUAL_FUELOIL_4           -27410
    TSLACK_URALS_DIESEL_4     COST                     -180  TSTRM_URALS_DIESEL_4     -1
    TBL_URALS_DIESEL_DIESEL_P_4  TSTRM_URALS_DIESEL_4     -1  PBAL_DIESEL_P_4          1
    TBL_URALS_DIESEL_DIESEL_P_4  QUAL_DIESEL_P_4          -46.4
    TBL_URALS_DIESEL_FUELOIL_4  TSTRM_URALS_DIESEL_4     -1  PBAL_FUELOIL_4           1
    TBL_URALS_DIESEL_FUELOIL_4  QUAL_FUELOIL_4           -34696.4
    SLACK_URALS_VGO_4         COST                     -180  STRM_URALS_VGO_4         -1
    HDT_URALS_VGO_4           COST                     -240  STRM_URALS_VGO_4         -1
    HDT_URALS_VGO_4           TSTRM_URALS_VGO_4        1  HDTCAP_4                 1
    FCC_URALS_4               COST                     -310  STRM_URALS_VGO_4         -1
    FCC_URALS_4               FSTRM_URALS_NAPHTHA_4    0.55  FSTRM_URALS_DIESEL_4     0.25
    FCC_URALS_4               FCCCAP_4                 1
    BL_URALS_VGO_DIESEL_P_4   STRM_URALS_VGO_4         -1  PBAL_DIESEL_P_4          1
    BL_URALS_VGO_DIESEL_P_4   QUAL_DIESEL_P_4          18280
    BL_URALS_VGO_FUELOIL_4    STRM_URALS_VGO_4         -1  PBAL_FUELOIL_4           1
    BL_URALS_VGO_FUELOIL_4    QUAL_FUELOIL_4           -16370
    TSLACK_URALS_VGO_4        COST                     -180  TSTRM_URALS_VGO_4        -1
    TBL_URALS_VGO_DIESEL_P_4  TSTRM_URALS_VGO_4        -1  PBAL_DIESEL_P_4          1
    TBL_URALS_VGO_DIESEL_P_4  QUAL_DIESEL_P_4          395.2
    TBL_URALS_VGO_FUELOIL_4   TSTRM_URALS_VGO_4        -1  PBAL_FUELOIL_4           1
    TBL_URALS_VGO_FUELOIL_4   QUAL_FUELOIL_4           -34254.8
    SLACK_URALS_RESIDUE_4     COST                     -180  STRM_URALS_RESIDUE_4     -1
    HDT_URALS_RESIDUE_4       COST                     -240  STRM_URALS_RESIDUE_4     -1
    HDT_URALS_RESIDUE_4       TSTRM_URALS_RESIDUE_4    1  HDTCAP_4                 1
    BL_URALS_RESIDUE_FUELOIL_4  STRM_URALS_RESIDUE_4     -1  PBAL_FUELOIL_4           1
    BL_URALS_RESIDUE_FUELOIL_4  QUAL_FUELOIL_4           880
    TSLACK_URALS_RESIDUE_4    COST                     -180  TSTRM_URALS_RESIDUE_4    -1
    TBL_URALS_RESIDUE_FUELOIL_4  TSTRM_URALS_RESIDUE_4    -1  PBAL_FUELOIL_4           1
    TBL_URALS_RESIDUE_FUELOIL_4  QUAL_FUELOIL_4           -33564.8
    FSLACK_URALS_NAPHTHA_4    COST                     -180  FSTRM_URALS_NAPHTHA_4    -1
    FBL_URALS_NAPHTHA_GASOLINE_4  FSTRM_URALS_NAPHTHA_4    -1  PBAL_GASOLINE_4          1
    FBL_URALS_NAPHTHA_GASOLINE_4  QUAL_GASOLINE_4          46.6
    FBL_URALS_NAPHTHA_JET_4   FSTRM_URALS_NAPHTHA_4    -1  PBAL_JET_4               1
    FBL_URALS_NAPHTHA_JET_4   QUAL_JET_4               -2403.4
    FSLACK_URALS_DIESEL_4     COST                     -180  FSTRM_URALS_DIESEL_4     -1
    FBL_URALS_DIESEL_DIESEL_P_4  FSTRM_URALS_DIESEL_4     -1  PBAL_DIESEL_P_4          1
    FBL_URALS_DIESEL_DIESEL_P_4  QUAL_DIESEL_P_4          2306.5
    FBL_URALS_DIESEL_FUELOIL_4  FSTRM_URALS_DIESEL_4     -1  PBAL_FUELOIL_4           1
    FBL_URALS_DIESEL_FUELOIL_4  QUAL_FUELOIL_4           -32343.5
    BUY_MURBAN_4              COST                     -6980  CBAL_MURBAN_4            1
    INVC_MURBAN_4             COST                     -83.76  CBAL_MURBAN_4            -1
    INVC_MURBAN_4             CBAL_MURBAN_5            1
    CHG_MURBAN_4              COST                     -145  CBAL_MURBAN_4            -1
    CHG_MURBAN_4              CDUCAP_4                 1  STRM_MURBAN_NAPHTHA_4    0.28
    CHG_MURBAN_4              STRM_MURBAN_KERO_4       0.19  STRM_MURBAN_DIESEL_4     0.23
    CHG_MURBAN_4              STRM_MURBAN_VGO_4        0.19  STRM_MURBAN_RESIDUE_4    0.11
    SLACK_MURBAN_NAPHTHA_4    COST                     -180  STRM_MURBAN_NAPHTHA_4    -1
    HDT_MURBAN_NAPHTHA_4      COST                     -240  STRM_MURBAN_NAPHTHA_4    -1
    HDT_MURBAN_NAPHTHA_4      TSTRM_MURBAN_NAPHTHA_4   1  HDTCAP_4                 1
    BL_MURBAN_NAPHTHA_GASOLINE_4  STRM_MURBAN_NAPHTHA_4    -1  PBAL_GASOLINE_4          1
    BL_MURBAN_NAPHTHA_GASOLINE_4  QUAL_GASOLINE_4          98
    BL_MURBAN_NAPHTHA_JET_4   STRM_MURBAN_NAPHTHA_4    -1  PBAL_JET_4               1
    BL_MURBAN_NAPHTHA_JET_4   QUAL_JET_4               -2352
    TSLACK_MURBAN_NAPHTHA_4   COST                     -180  TSTRM_MURBAN_NAPHTHA_4   -1
    TBL_MURBAN_NAPHTHA_GASOLINE_4  TSTRM_MURBAN_NAPHTHA_4   -1  PBAL_GASOLINE_4          1
    TBL_MURBAN_NAPHTHA_GASOLINE_4  QUAL_GASOLINE_4          -44.08
    TBL_MURBAN_NAPHTHA_JET_4  TSTRM_MURBAN_NAPHTHA_4   -1  PBAL_JET_4               1
    TBL_MURBAN_NAPHTHA_JET_4  QUAL_JET_4               -2494.08
    SLACK_MURBAN_KERO_4       COST                     -180  STRM_MURBAN_KERO_4       -1
    HDT_MURBAN_KERO_4         COST                     -240  STRM_MURBAN_KERO_4       -1
    HDT_MURBAN_KERO_4         TSTRM_MURBAN_KERO_4      1  HDTCAP_4                 1
    BL_MURBAN_KERO_GASOLINE_4  STRM_MURBAN_KERO_4       -1  PBAL_GASOLINE_4          1
    BL_MURBAN_KERO_GASOLINE_4  QUAL_GASOLINE_4          1060
    BL_MURBAN_KERO_JET_4      STRM_MURBAN_KERO_4       -1  PBAL_JET_4               1
    BL_MURBAN_KERO_JET_4      QUAL_JET_4               -1390
    BL_MURBAN_KERO_DIESEL_P_4  STRM_MURBAN_KERO_4       -1  PBAL_DIESEL_P_4          1
    BL_MURBAN_KERO_DIESEL_P_4  QUAL_DIESEL_P_4          760
    TSLACK_MURBAN_KERO_4      COST                     -180  TSTRM_MURBAN_KERO_4      -1
    TBL_MURBAN_KERO_GASOLINE_4  TSTRM_MURBAN_KERO_4      -1  PBAL_GASOLINE_4          1
    TBL_MURBAN_KERO_GASOLINE_4  QUAL_GASOLINE_4          -5.6
    TBL_MURBAN_KERO_JET_4     TSTRM_MURBAN_KERO_4      -1  PBAL_JET_4               1
    TBL_MURBAN_KERO_JET_4     QUAL_JET_4               -2455.6
    TBL_MURBAN_KERO_DIESEL_P_4  TSTRM_MURBAN_KERO_4      -1  PBAL_DIESEL_P_4          1
    TBL_MURBAN_KERO_DIESEL_P_4  QUAL_DIESEL_P_4          -305.6
    SLACK_MURBAN_DIESEL_4     COST                     -180  STRM_MURBAN_DIESEL_4     -1
    HDT_MURBAN_DIESEL_4       COST                     -240  STRM_MURBAN_DIESEL_4     -1
    HDT_MURBAN_DIESEL_4       TSTRM_MURBAN_DIESEL_4    1  HDTCAP_4                 1
    BL_MURBAN_DIESEL_DIESEL_P_4  STRM_MURBAN_DIESEL_4     -1  PBAL_DIESEL_P_4          1
    BL_MURBAN_DIESEL_DIESEL_P_4  QUAL_DIESEL_P_4          3720
    BL_MURBAN_DIESEL_FUELOIL_4  STRM_MURBAN_DIESEL_4     -1  PBAL_FUELOIL_4           1
    BL_MURBAN_DIESEL_FUELOIL_4  QUAL_FUELOIL_4           -30930
    TSLACK_MURBAN_DIESEL_4    COST                     -180  TSTRM_MURBAN_DIESEL_4    -1
    TBL_MURBAN_DIESEL_DIESEL_P_4  TSTRM_MURBAN_DIESEL_4    -1  PBAL_DIESEL_P_4          1
    TBL_MURBAN_DIESEL_DIESEL_P_4  QUAL_DIESEL_P_4          -187.2
    TBL_MURBAN_DIESEL_FUELOIL_4  TSTRM_MURBAN_DIESEL_4    -1  PBAL_FUELOIL_4           1
    TBL_MURBAN_DIESEL_FUELOIL_4  QUAL_FUELOIL_4           -34837.2
    SLACK_MURBAN_VGO_4        COST                     -180  STRM_MURBAN_VGO_4        -1
    HDT_MURBAN_VGO_4          COST                     -240  STRM_MURBAN_VGO_4        -1
    HDT_MURBAN_VGO_4          TSTRM_MURBAN_VGO_4       1  HDTCAP_4                 1
    FCC_MURBAN_4              COST                     -310  STRM_MURBAN_VGO_4        -1
    FCC_MURBAN_4              FSTRM_MURBAN_NAPHTHA_4   0.55  FSTRM_MURBAN_DIESEL_4    0.25
    FCC_MURBAN_4              FCCCAP_4                 1
    BL_MURBAN_VGO_DIESEL_P_4  STRM_MURBAN_VGO_4        -1  PBAL_DIESEL_P_4          1
    BL_MURBAN_VGO_DIESEL_P_4  QUAL_DIESEL_P_4          9640
    BL_MURBAN_VGO_FUELOIL_4   STRM_MURBAN_VGO_4        -1  PBAL_FUELOIL_4           1
    BL_MURBAN_VGO_FUELOIL_4   QUAL_FUELOIL_4           -25010
    TSLACK_MURBAN_VGO_4       COST                     -180  TSTRM_MURBAN_VGO_4       -1
    TBL_MURBAN_VGO_DIESEL_P_4  TSTRM_MURBAN_VGO_4       -1  PBAL_DIESEL_P_4          1
    TBL_MURBAN_VGO_DIESEL_P_4  QUAL_DIESEL_P_4          49.6
    TBL_MURBAN_VGO_FUELOIL_4  TSTRM_MURBAN_VGO_4       -1  PBAL_FUELOIL_4           1
    TBL_MURBAN_VGO_FUELOIL_4  QUAL_FUELOIL_4           -34600.4
    SLACK_MURBAN_RESIDUE_4    COST                     -180  STRM_MURBAN_RESIDUE_4    -1
    HDT_MURBAN_RESIDUE_4      COST                     -240  STRM_MURBAN_RESIDUE_4    -1
    HDT_MURBAN_RESIDUE_4      TSTRM_MURBAN_RESIDUE_4   1  HDTCAP_4                 1
    BL_MURBAN_RESIDUE_FUELOIL_4  STRM_MURBAN_RESIDUE_4    -1  PBAL_FUELOIL_4           1
    BL_MURBAN_RESIDUE_FUELOIL_4  QUAL_FUELOIL_4           -15760
    TSLACK_MURBAN_RESIDUE_4   COST                     -180  TSTRM_MURBAN_RESIDUE_4   -1
    TBL_MURBAN_RESIDUE_FUELOIL_4  TSTRM_MURBAN_RESIDUE_4   -1  PBAL_FUELOIL_4           1
    TBL_MURBAN_RESIDUE_FUELOIL_4  QUAL_FUELOIL_4           -34230.4
    FSLACK_MURBAN_NAPHTHA_4   COST                     -180  FSTRM_MURBAN_NAPHTHA_4   -1
    FBL_MURBAN_NAPHTHA_GASOLINE_4  FSTRM_MURBAN_NAPHTHA_4   -1  PBAL_GASOLINE_4          1
    FBL_MURBAN_NAPHTHA_GASOLINE_4  QUAL_GASOLINE_4          1.8
    FBL_MURBAN_NAPHTHA_JET_4  FSTRM_MURBAN_NAPHTHA_4   -1  PBAL_JET_4               1
    FBL_MURBAN_NAPHTHA_JET_4  QUAL_JET_4               -2448.2
    FSLACK_MURBAN_DIESEL_4    COST                     -180  FSTRM_MURBAN_DIESEL_4    -1
    FBL_MURBAN_DIESEL_DIESEL_P_4  FSTRM_MURBAN_DIESEL_4    -1  PBAL_DIESEL_P_4          1
    FBL_MURBAN_DIESEL_DIESEL_P_4  QUAL_DIESEL_P_4          1074.5
    FBL_MURBAN_DIESEL_FUELOIL_4  FSTRM_MURBAN_DIESEL_4    -1  PBAL_FUELOIL_4           1
    FBL_MURBAN_DIESEL_FUELOIL_4  QUAL_FUELOIL_4           -33575.5
    BUY_ES_SIDER_4            COST                     -6540  CBAL_ES_SIDER_4          1
    INVC_ES_SIDER_4           COST                     -78.48  CBAL_ES_SIDER_4          -1
    INVC_ES_SIDER_4           CBAL_ES_SIDER_5          1
    CHG_ES_SIDER_4            COST                     -145  CBAL_ES_SIDER_4          -1
    CHG_ES_SIDER_4            CDUCAP_4                 1  STRM_ES_SIDER_NAPHTHA_4  0.25
    CHG_ES_SIDER_4            STRM_ES_SIDER_KERO_4     0.18  STRM_ES_SIDER_DIESEL_4   0.25
    CHG_ES_SIDER_4            STRM_ES_SIDER_VGO_4      0.2  STRM_ES_SIDER_RESIDUE_4  0.12
    SLACK_ES_SIDER_NAPHTHA_4  COST                     -180  STRM_ES_SIDER_NAPHTHA_4  -1
    HDT_ES_SIDER_NAPHTHA_4    COST                     -240  STRM_ES_SIDER_NAPHTHA_4  -1
    HDT_ES_SIDER_NAPHTHA_4    TSTRM_ES_SIDER_NAPHTHA_4 1  HDTCAP_4                 1
    BL_ES_SIDER_NAPHTHA_GASOLINE_4  STRM_ES_SIDER_NAPHTHA_4  -1  PBAL_GASOLINE_4          1
    BL_ES_SIDER_NAPHTHA_GASOLINE_4  QUAL_GASOLINE_4          32
    BL_ES_SIDER_NAPHTHA_JET_4  STRM_ES_SIDER_NAPHTHA_4  -1  PBAL_JET_4               1
    BL_ES_SIDER_NAPHTHA_JET_4  QUAL_JET_4               -2418
    TSLACK_ES_SIDER_NAPHTHA_4  COST                     -180  TSTRM_ES_SIDER_NAPHTHA_4 -1
    TBL_ES_SIDER_NAPHTHA_GASOLINE_4  TSTRM_ES_SIDER_NAPHTHA_4 -1  PBAL_GASOLINE_4          1
    TBL_ES_SIDER_NAPHTHA_GASOLINE_4  QUAL_GASOLINE_4          -46.72
    TBL_ES_SIDER_NAPHTHA_JET_4  TSTRM_ES_SIDER_NAPHTHA_4 -1  PBAL_JET_4               1
    TBL_ES_SIDER_NAPHTHA_JET_4  QUAL_JET_4               -2496.72
    SLACK_ES_SIDER_KERO_4     COST                     -180  STRM_ES_SIDER_KERO_4     -1
    HDT_ES_SIDER_KERO_4       COST                     -240  STRM_ES_SIDER_KERO_4     -1
    HDT_ES_SIDER_KERO_4       TSTRM_ES_SIDER_KERO_4    1  HDTCAP_4                 1
    BL_ES_SIDER_KERO_GASOLINE_4  STRM_ES_SIDER_KERO_4     -1  PBAL_GASOLINE_4          1
    BL_ES_SIDER_KERO_GASOLINE_4  QUAL_GASOLINE_4          565
    BL_ES_SIDER_KERO_JET_4    STRM_ES_SIDER_KERO_4     -1  PBAL_JET_4               1
    BL_ES_SIDER_KERO_JET_4    QUAL_JET_4               -1885
    BL_ES_SIDER_KERO_DIESEL_P_4  STRM_ES_SIDER_KERO_4     -1  PBAL_DIESEL_P_4          1
    BL_ES_SIDER_KERO_DIESEL_P_4  QUAL_DIESEL_P_4          265
    TSLACK_ES_SIDER_KERO_4    COST                     -180  TSTRM_ES_SIDER_KERO_4    -1
    TBL_ES_SIDER_KERO_GASOLINE_4  TSTRM_ES_SIDER_KERO_4    -1  PBAL_GASOLINE_4          1
    TBL_ES_SIDER_KERO_GASOLINE_4  QUAL_GASOLINE_4          -25.4
    TBL_ES_SIDER_KERO_JET_4   TSTRM_ES_SIDER_KERO_4    -1  PBAL_JET_4               1
    TBL_ES_SIDER_KERO_JET_4   QUAL_JET_4               -2475.4
    TBL_ES_SIDER_KERO_DIESEL_P_4  TSTRM_ES_SIDER_KERO_4    -1  PBAL_DIESEL_P_4          1
    TBL_ES_SIDER_KERO_DIESEL_P_4  QUAL_DIESEL_P_4          -325.4
    SLACK_ES_SIDER_DIESEL_4   COST                     -180  STRM_ES_SIDER_DIESEL_4   -1
    HDT_ES_SIDER_DIESEL_4     COST                     -240  STRM_ES_SIDER_DIESEL_4   -1
    HDT_ES_SIDER_DIESEL_4     TSTRM_ES_SIDER_DIESEL_4  1  HDTCAP_4                 1
    BL_ES_SIDER_DIESEL_DIESEL_P_4  STRM_ES_SIDER_DIESEL_4   -1  PBAL_DIESEL_P_4          1
    BL_ES_SIDER_DIESEL_DIESEL_P_4  QUAL_DIESEL_P_4          1905
    BL_ES_SIDER_DIESEL_FUELOIL_4  STRM_ES_SIDER_DIESEL_4   -1  PBAL_FUELOIL_4           1
    BL_ES_SIDER_DIESEL_FUELOIL_4  QUAL_FUELOIL_4           -32745
    TSLACK_ES_SIDER_DIESEL_4  COST                     -180  TSTRM_ES_SIDER_DIESEL_4  -1
    TBL_ES_SIDER_DIESEL_DIESEL_P_4  TSTRM_ES_SIDER_DIESEL_4  -1  PBAL_DIESEL_P_4          1
    TBL_ES_SIDER_DIESEL_DIESEL_P_4  QUAL_DIESEL_P_4          -259.8
    TBL_ES_SIDER_DIESEL_FUELOIL_4  TSTRM_ES_SIDER_DIESEL_4  -1  PBAL_FUELOIL_4           1
    TBL_ES_SIDER_DIESEL_FUELOIL_4  QUAL_FUELOIL_4           -34909.8
    SLACK_ES_SIDER_VGO_4      COST                     -180  STRM_ES_SIDER_VGO_4      -1
    HDT_ES_SIDER_VGO_4        COST                     -240  STRM_ES_SIDER_VGO_4      -1
    HDT_ES_SIDER_VGO_4        TSTRM_ES_SIDER_VGO_4     1  HDTCAP_4                 1
    FCC_ES_SIDER_4            COST                     -310  STRM_ES_SIDER_VGO_4      -1
    FCC_ES_SIDER_4            FSTRM_ES_SIDER_NAPHTHA_4 0.55  FSTRM_ES_SIDER_DIESEL_4  0.25
    FCC_ES_SIDER_4            FCCCAP_4                 1
    BL_ES_SIDER_VGO_DIESEL_P_4  STRM_ES_SIDER_VGO_4      -1  PBAL_DIESEL_P_4          1
    BL_ES_SIDER_VGO_DIESEL_P_4  QUAL_DIESEL_P_4          5185
    BL_ES_SIDER_VGO_FUELOIL_4  STRM_ES_SIDER_VGO_4      -1  PBAL_FUELOIL_4           1
    BL_ES_SIDER_VGO_FUELOIL_4  QUAL_FUELOIL_4           -29465
    TSLACK_ES_SIDER_VGO_4     COST                     -180  TSTRM_ES_SIDER_VGO_4     -1
    TBL_ES_SIDER_VGO_DIESEL_P_4  TSTRM_ES_SIDER_VGO_4     -1  PBAL_DIESEL_P_4          1
    TBL_ES_SIDER_VGO_DIESEL_P_4  QUAL_DIESEL_P_4          -128.6
    TBL_ES_SIDER_VGO_FUELOIL_4  TSTRM_ES_SIDER_VGO_4     -1  PBAL_FUELOIL_4           1
    TBL_ES_SIDER_VGO_FUELOIL_4  QUAL_FUELOIL_4           -34778.6
    SLACK_ES_SIDER_RESIDUE_4  COST                     -180  STRM_ES_SIDER_RESIDUE_4  -1
    HDT_ES_SIDER_RESIDUE_4    COST                     -240  STRM_ES_SIDER_RESIDUE_4  -1
    HDT_ES_SIDER_RESIDUE_4    TSTRM_ES_SIDER_RESIDUE_4 1  HDTCAP_4                 1
    BL_ES_SIDER_RESIDUE_FUELOIL_4  STRM_ES_SIDER_RESIDUE_4  -1  PBAL_FUELOIL_4           1
    BL_ES_SIDER_RESIDUE_FUELOIL_4  QUAL_FUELOIL_4           -24340
    TSLACK_ES_SIDER_RESIDUE_4  COST                     -180  TSTRM_ES_SIDER_RESIDUE_4 -1
    TBL_ES_SIDER_RESIDUE_FUELOIL_4  TSTRM_ES_SIDER_RESIDUE_4 -1  PBAL_FUELOIL_4           1
    TBL_ES_SIDER_RESIDUE_FUELOIL_4  QUAL_FUELOIL_4           -34573.6
    FSLACK_ES_SIDER_NAPHTHA_4  COST                     -180  FSTRM_ES_SIDER_NAPHTHA_4 -1
    FBL_ES_SIDER_NAPHTHA_GASOLINE_4  FSTRM_ES_SIDER_NAPHTHA_4 -1  PBAL_GASOLINE_4          1
    FBL_ES_SIDER_NAPHTHA_GASOLINE_4  QUAL_GASOLINE_4          -21.3
    FBL_ES_SIDER_NAPHTHA_JET_4  FSTRM_ES_SIDER_NAPHTHA_4 -1  PBAL_JET_4               1
    FBL_ES_SIDER_NAPHTHA_JET_4  QUAL_JET_4               -2471.3
    FSLACK_ES_SIDER_DIESEL_4  COST                     -180  FSTRM_ES_SIDER_DIESEL_4  -1
    FBL_ES_SIDER_DIESEL_DIESEL_P_4  FSTRM_ES_SIDER_DIESEL_4  -1  PBAL_DIESEL_P_4          1
    FBL_ES_SIDER_DIESEL_DIESEL_P_4  QUAL_DIESEL_P_4          439.25
    FBL_ES_SIDER_DIESEL_FUELOIL_4  FSTRM_ES_SIDER_DIESEL_4  -1  PBAL_FUELOIL_4           1
    FBL_ES_SIDER_DIESEL_FUELOIL_4  QUAL_FUELOIL_4           -34210.75
    BUY_QUA_IBOE_4            COST                     -6890  CBAL_QUA_IBOE_4          1
    INVC_QUA_IBOE_4           COST                     -82.68  CBAL_QUA_IBOE_4          -1
    INVC_QUA_IBOE_4           CBAL_QUA_IBOE_5          1
    CHG_QUA_IBOE_4            COST                     -145  CBAL_QUA_IBOE_4          -1
    CHG_QUA_IBOE_4            CDUCAP_4                 1  STRM_QUA_IBOE_NAPHTHA_4  0.27
    CHG_QUA_IBOE_4            STRM_QUA_IBOE_KERO_4     0.2  STRM_QUA_IBOE_DIESEL_4   0.25
    CHG_QUA_IBOE_4            STRM_QUA_IBOE_VGO_4      0.18  STRM_QUA_IBOE_RESIDUE_4  0.1
    SLACK_QUA_IBOE_NAPHTHA_4  COST                     -180  STRM_QUA_IBOE_NAPHTHA_4  -1
    HDT_QUA_IBOE_NAPHTHA_4    COST                     -240  STRM_QUA_IBOE_NAPHTHA_4  -1
    HDT_QUA_IBOE_NAPHTHA_4    TSTRM_QUA_IBOE_NAPHTHA_4 1  HDTCAP_4                 1
    BL_QUA_IBOE_NAPHTHA_GASOLINE_4  STRM_QUA_IBOE_NAPHTHA_4  -1  PBAL_GASOLINE_4          1
    BL_QUA_IBOE_NAPHTHA_GASOLINE_4  QUAL_GASOLINE_4          -24
    BL_QUA_IBOE_NAPHTHA_JET_4  STRM_QUA_IBOE_NAPHTHA_4  -1  PBAL_JET_4               1
    BL_QUA_IBOE_NAPHTHA_JET_4  QUAL_JET_4               -2474
    TSLACK_QUA_IBOE_NAPHTHA_4  COST                     -180  TSTRM_QUA_IBOE_NAPHTHA_4 -1
    TBL_QUA_IBOE_NAPHTHA_GASOLINE_4  TSTRM_QUA_IBOE_NAPHTHA_4 -1  PBAL_GASOLINE_4          1
    TBL_QUA_IBOE_NAPHTHA_GASOLINE_4  QUAL_GASOLINE_4          -48.96
    TBL_QUA_IBOE_NAPHTHA_JET_4  TSTRM_QUA_IBOE_NAPHTHA_4 -1  PBAL_JET_4               1
    TBL_QUA_IBOE_NAPHTHA_JET_4  QUAL_JET_4               -2498.96
    SLACK_QUA_IBOE_KERO_4     COST                     -180  STRM_QUA_IBOE_KERO_4     -1
    HDT_QUA_IBOE_KERO_4       COST                     -240  STRM_QUA_IBOE_KERO_4     -1
    HDT_QUA_IBOE_KERO_4       TSTRM_QUA_IBOE_KERO_4    1  HDTCAP_4                 1
    BL_QUA_IBOE_KERO_GASOLINE_4  STRM_QUA_IBOE_KERO_4     -1  PBAL_GASOLINE_4          1
    BL_QUA_IBOE_KERO_GASOLINE_4  QUAL_GASOLINE_4          145
    BL_QUA_IBOE_KERO_JET_4    STRM_QUA_IBOE_KERO_4     -1  PBAL_JET_4               1
    BL_QUA_IBOE_KERO_JET_4    QUAL_JET_4               -2305
    BL_QUA_IBOE_KERO_DIESEL_P_4  STRM_QUA_IBOE_KERO_4     -1  PBAL_DIESEL_P_4          1
    BL_QUA_IBOE_KERO_DIESEL_P_4  QUAL_DIESEL_P_4          -155
    TSLACK_QUA_IBOE_KERO_4    COST                     -180  TSTRM_QUA_IBOE_KERO_4    -1
    TBL_QUA_IBOE_KERO_GASOLINE_4  TSTRM_QUA_IBOE_KERO_4    -1  PBAL_GASOLINE_4          1
    TBL_QUA_IBOE_KERO_GASOLINE_4  QUAL_GASOLINE_4          -42.2
    TBL_QUA_IBOE_KERO_JET_4   TSTRM_QUA_IBOE_KERO_4    -1  PBAL_JET_4               1
    TBL_QUA_IBOE_KERO_JET_4   QUAL_JET_4               -2492.2
    TBL_QUA_IBOE_KERO_DIESEL_P_4  TSTRM_QUA_IBOE_KERO_4    -1  PBAL_DIESEL_P_4          1
    TBL_QUA_IBOE_KERO_DIESEL_P_4  QUAL_DIESEL_P_4          -342.2
    SLACK_QUA_IBOE_DIESEL_4   COST                     -180  STRM_QUA_IBOE_DIESEL_4   -1
    HDT_QUA_IBOE_DIESEL_4     COST                     -240  STRM_QUA_IBOE_DIESEL_4   -1
    HDT_QUA_IBOE_DIESEL_4     TSTRM_QUA_IBOE_DIESEL_4  1  HDTCAP_4                 1
    BL_QUA_IBOE_DIESEL_DIESEL_P_4  STRM_QUA_IBOE_DIESEL_4   -1  PBAL_DIESEL_P_4          1
    BL_QUA_IBOE_DIESEL_DIESEL_P_4  QUAL_DIESEL_P_4          365
    BL_QUA_IBOE_DIESEL_FUELOIL_4  STRM_QUA_IBOE_DIESEL_4   -1  PBAL_FUELOIL_4           1
    BL_QUA_IBOE_DIESEL_FUELOIL_4  QUAL_FUELOIL_4           -34285
    TSLACK_QUA_IBOE_DIESEL_4  COST                     -180  TSTRM_QUA_IBOE_DIESEL_4  -1
    TBL_QUA_IBOE_DIESEL_DIESEL_P_4  TSTRM_QUA_IBOE_DIESEL_4  -1  PBAL_DIESEL_P_4          1
    TBL_QUA_IBOE_DIESEL_DIESEL_P_4  QUAL_DIESEL_P_4          -321.4
    TBL_QUA_IBOE_DIESEL_FUELOIL_4  TSTRM_QUA_IBOE_DIESEL_4  -1  PBAL_FUELOIL_4           1
    TBL_QUA_IBOE_DIESEL_FUELOIL_4  QUAL_FUELOIL_4           -34971.4
    SLACK_QUA_IBOE_VGO_4      COST                     -180  STRM_QUA_IBOE_VGO_4      -1
    HDT_QUA_IBOE_VGO_4        COST                     -240  STRM_QUA_IBOE_VGO_4      -1
    HDT_QUA_IBOE_VGO_4        TSTRM_QUA_IBOE_VGO_4     1  HDTCAP_4                 1
    FCC_QUA_IBOE_4            COST                     -310  STRM_QUA_IBOE_VGO_4      -1
    FCC_QUA_IBOE_4            FSTRM_QUA_IBOE_NAPHTHA_4 0.55  FSTRM_QUA_IBOE_DIESEL_4  0.25
    FCC_QUA_IBOE_4            FCCCAP_4                 1
    BL_QUA_IBOE_VGO_DIESEL_P_4  STRM_QUA_IBOE_VGO_4      -1  PBAL_DIESEL_P_4          1
    BL_QUA_IBOE_VGO_DIESEL_P_4  QUAL_DIESEL_P_4          1405
    BL_QUA_IBOE_VGO_FUELOIL_4  STRM_QUA_IBOE_VGO_4      -1  PBAL_FUELOIL_4           1
    BL_QUA_IBOE_VGO_FUELOIL_4  QUAL_FUELOIL_4           -33245
    TSLACK_QUA_IBOE_VGO_4     COST                     -180  TSTRM_QUA_IBOE_VGO_4     -1
    TBL_QUA_IBOE_VGO_DIESEL_P_4  TSTRM_QUA_IBOE_VGO_4     -1  PBAL_DIESEL_P_4          1
    TBL_QUA_IBOE_VGO_DIESEL_P_4  QUAL_DIESEL_P_4          -279.8
    TBL_QUA_IBOE_VGO_FUELOIL_4  TSTRM_QUA_IBOE_VGO_4     -1  PBAL_FUELOIL_4           1
    TBL_QUA_IBOE_VGO_FUELOIL_4  QUAL_FUELOIL_4           -34929.8
    SLACK_QUA_IBOE_RESIDUE_4  COST                     -180  STRM_QUA_IBOE_RESIDUE_4  -1
    HDT_QUA_IBOE_RESIDUE_4    COST                     -240  STRM_QUA_IBOE_RESIDUE_4  -1
    HDT_QUA_IBOE_RESIDUE_4    TSTRM_QUA_IBOE_RESIDUE_4 1  HDTCAP_4                 1
    BL_QUA_IBOE_RESIDUE_FUELOIL_4  STRM_QUA_IBOE_RESIDUE_4  -1  PBAL_FUELOIL_4           1
    BL_QUA_IBOE_RESIDUE_FUELOIL_4  QUAL_FUELOIL_4           -31620
    TSLACK_QUA_IBOE_RESIDUE_4  COST                     -180  TSTRM_QUA_IBOE_RESIDUE_4 -1
    TBL_QUA_IBOE_RESIDUE_FUELOIL_4  TSTRM_QUA_IBOE_RESIDUE_4 -1  PBAL_FUELOIL_4           1
    TBL_QUA_IBOE_RESIDUE_FUELOIL_4  QUAL_FUELOIL_4           -34864.8
    FSLACK_QUA_IBOE_NAPHTHA_4  COST                     -180  FSTRM_QUA_IBOE_NAPHTHA_4 -1
    FBL_QUA_IBOE_NAPHTHA_GASOLINE_4  FSTRM_QUA_IBOE_NAPHTHA_4 -1  PBAL_GASOLINE_4          1
    FBL_QUA_IBOE_NAPHTHA_GASOLINE_4  QUAL_GASOLINE_4          -40.9
    FBL_QUA_IBOE_NAPHTHA_JET_4  FSTRM_QUA_IBOE_NAPHTHA_4 -1  PBAL_JET_4               1
    FBL_QUA_IBOE_NAPHTHA_JET_4  QUAL_JET_4               -2490.9
    FSLACK_QUA_IBOE_DIESEL_4  COST                     -180  FSTRM_QUA_IBOE_DIESEL_4  -1
    FBL_QUA_IBOE_DIESEL_DIESEL_P_4  FSTRM_QUA_IBOE_DIESEL_4  -1  PBAL_DIESEL_P_4          1
    FBL_QUA_IBOE_DIESEL_DIESEL_P_4  QUAL_DIESEL_P_4          -99.75
    FBL_QUA_IBOE_DIESEL_FUELOIL_4  FSTRM_QUA_IBOE_DIESEL_4  -1  PBAL_FUELOIL_4           1
    FBL_QUA_IBOE_DIESEL_FUELOIL_4  QUAL_FUELOIL_4           -34749.75
    SELL_GASOLINE_4           COST                     9250  PBAL_GASOLINE_4          -1
    SELL_JET_4                COST                     8900  PBAL_JET_4               -1
    SELL_DIESEL_P_4           COST                     8600  PBAL_DIESEL_P_4          -1
    SELL_FUELOIL_4            COST                     4900  PBAL_FUELOIL_4           -1
    BUY_BOMBAY_HIGH_5         COST                     -6850  CBAL_BOMBAY_HIGH_5       1
    INVC_BOMBAY_HIGH_5        COST                     -82.2  CBAL_BOMBAY_HIGH_5       -1
    INVC_BOMBAY_HIGH_5        CBAL_BOMBAY_HIGH_6       1
    CHG_BOMBAY_HIGH_5         COST                     -145  CBAL_BOMBAY_HIGH_5       -1
    CHG_BOMBAY_HIGH_5         CDUCAP_5                 1  STRM_BOMBAY_HIGH_NAPHTHA_5 0.26
    CHG_BOMBAY_HIGH_5         STRM_BOMBAY_HIGH_KERO_5  0.18  STRM_BOMBAY_HIGH_DIESEL_5 0.24
    CHG_BOMBAY_HIGH_5         STRM_BOMBAY_HIGH_VGO_5   0.2  STRM_BOMBAY_HIGH_RESIDUE_5 0.12
    SLACK_BOMBAY_HIGH_NAPHTHA_5  COST                     -180  STRM_BOMBAY_HIGH_NAPHTHA_5 -1
    HDT_BOMBAY_HIGH_NAPHTHA_5  COST                     -240  STRM_BOMBAY_HIGH_NAPHTHA_5 -1
    HDT_BOMBAY_HIGH_NAPHTHA_5  TSTRM_BOMBAY_HIGH_NAPHTHA_5 1  HDTCAP_5                 1
    BL_BOMBAY_HIGH_NAPHTHA_GASOLINE_5  STRM_BOMBAY_HIGH_NAPHTHA_5 -1  PBAL_GASOLINE_5          1
    BL_BOMBAY_HIGH_NAPHTHA_GASOLINE_5  QUAL_GASOLINE_5          -32
    BL_BOMBAY_HIGH_NAPHTHA_JET_5  STRM_BOMBAY_HIGH_NAPHTHA_5 -1  PBAL_JET_5               1
    BL_BOMBAY_HIGH_NAPHTHA_JET_5  QUAL_JET_5               -2482
    TSLACK_BOMBAY_HIGH_NAPHTHA_5  COST                     -180  TSTRM_BOMBAY_HIGH_NAPHTHA_5 -1
    TBL_BOMBAY_HIGH_NAPHTHA_GASOLINE_5  TSTRM_BOMBAY_HIGH_NAPHTHA_5 -1  PBAL_GASOLINE_5          1
    TBL_BOMBAY_HIGH_NAPHTHA_GASOLINE_5  QUAL_GASOLINE_5          -49.28
    TBL_BOMBAY_HIGH_NAPHTHA_JET_5  TSTRM_BOMBAY_HIGH_NAPHTHA_5 -1  PBAL_JET_5               1
    TBL_BOMBAY_HIGH_NAPHTHA_JET_5  QUAL_JET_5               -2499.28
    SLACK_BOMBAY_HIGH_KERO_5  COST                     -180  STRM_BOMBAY_HIGH_KERO_5  -1
    HDT_BOMBAY_HIGH_KERO_5    COST                     -240  STRM_BOMBAY_HIGH_KERO_5  -1
    HDT_BOMBAY_HIGH_KERO_5    TSTRM_BOMBAY_HIGH_KERO_5 1  HDTCAP_5                 1
    BL_BOMBAY_HIGH_KERO_GASOLINE_5  STRM_BOMBAY_HIGH_KERO_5  -1  PBAL_GASOLINE_5          1
    BL_BOMBAY_HIGH_KERO_GASOLINE_5  QUAL_GASOLINE_5          85
    BL_BOMBAY_HIGH_KERO_JET_5  STRM_BOMBAY_HIGH_KERO_5  -1  PBAL_JET_5               1
    BL_BOMBAY_HIGH_KERO_JET_5  QUAL_JET_5               -2365
    BL_BOMBAY_HIGH_KERO_DIESEL_P_5  STRM_BOMBAY_HIGH_KERO_5  -1  PBAL_DIESEL_P_5          1
    BL_BOMBAY_HIGH_KERO_DIESEL_P_5  QUAL_DIESEL_P_5          -215
    TSLACK_BOMBAY_HIGH_KERO_5  COST                     -180  TSTRM_BOMBAY_HIGH_KERO_5 -1
    TBL_BOMBAY_HIGH_KERO_GASOLINE_5  TSTRM_BOMBAY_HIGH_KERO_5 -1  PBAL_GASOLINE_5          1
    TBL_BOMBAY_HIGH_KERO_GASOLINE_5  QUAL_GASOLINE_5          -44.6
    TBL_BOMBAY_HIGH_KERO_JET_5  TSTRM_BOMBAY_HIGH_KERO_5 -1  PBAL_JET_5               1
    TBL_BOMBAY_HIGH_KERO_JET_5  QUAL_JET_5               -2494.6
    TBL_BOMBAY_HIGH_KERO_DIESEL_P_5  TSTRM_BOMBAY_HIGH_KERO_5 -1  PBAL_DIESEL_P_5          1
    TBL_BOMBAY_HIGH_KERO_DIESEL_P_5  QUAL_DIESEL_P_5          -344.6
    SLACK_BOMBAY_HIGH_DIESEL_5  COST                     -180  STRM_BOMBAY_HIGH_DIESEL_5 -1
    HDT_BOMBAY_HIGH_DIESEL_5  COST                     -240  STRM_BOMBAY_HIGH_DIESEL_5 -1
    HDT_BOMBAY_HIGH_DIESEL_5  TSTRM_BOMBAY_HIGH_DIESEL_5 1  HDTCAP_5                 1
    BL_BOMBAY_HIGH_DIESEL_DIESEL_P_5  STRM_BOMBAY_HIGH_DIESEL_5 -1  PBAL_DIESEL_P_5          1
    BL_BOMBAY_HIGH_DIESEL_DIESEL_P_5  QUAL_DIESEL_P_5          145
    BL_BOMBAY_HIGH_DIESEL_FUELOIL_5  STRM_BOMBAY_HIGH_DIESEL_5 -1  PBAL_FUELOIL_5           1
    BL_BOMBAY_HIGH_DIESEL_FUELOIL_5  QUAL_FUELOIL_5           -34505
    TSLACK_BOMBAY_HIGH_DIESEL_5  COST                     -180  TSTRM_BOMBAY_HIGH_DIESEL_5 -1
    TBL_BOMBAY_HIGH_DIESEL_DIESEL_P_5  TSTRM_BOMBAY_HIGH_DIESEL_5 -1  PBAL_DIESEL_P_5          1
    TBL_BOMBAY_HIGH_DIESEL_DIESEL_P_5  QUAL_DIESEL_P_5          -330.2
    TBL_BOMBAY_HIGH_DIESEL_FUELOIL_5  TSTRM_BOMBAY_HIGH_DIESEL_5 -1  PBAL_FUELOIL_5           1
    TBL_BOMBAY_HIGH_DIESEL_FUELOIL_5  QUAL_FUELOIL_5           -34980.2
    SLACK_BOMBAY_HIGH_VGO_5   COST                     -180  STRM_BOMBAY_HIGH_VGO_5   -1
    HDT_BOMBAY_HIGH_VGO_5     COST                     -240  STRM_BOMBAY_HIGH_VGO_5   -1
    HDT_BOMBAY_HIGH_VGO_5     TSTRM_BOMBAY_HIGH_VGO_5  1  HDTCAP_5                 1
    FCC_BOMBAY_HIGH_5         COST                     -310  STRM_BOMBAY_HIGH_VGO_5   -1
    FCC_BOMBAY_HIGH_5         FSTRM_BOMBAY_HIGH_NAPHTHA_5 0.55  FSTRM_BOMBAY_HIGH_DIESEL_5 0.25
    FCC_BOMBAY_HIGH_5         FCCCAP_5                 1
    BL_BOMBAY_HIGH_VGO_DIESEL_P_5  STRM_BOMBAY_HIGH_VGO_5   -1  PBAL_DIESEL_P_5          1
    BL_BOMBAY_HIGH_VGO_DIESEL_P_5  QUAL_DIESEL_P_5          865
    BL_BOMBAY_HIGH_VGO_FUELOIL_5  STRM_BOMBAY_HIGH_VGO_5   -1  PBAL_FUELOIL_5           1
    BL_BOMBAY_HIGH_VGO_FUELOIL_5  QUAL_FUELOIL_5           -33785
    TSLACK_BOMBAY_HIGH_VGO_5  COST                     -180  TSTRM_BOMBAY_HIGH_VGO_5  -1
    TBL_BOMBAY_HIGH_VGO_DIESEL_P_5  TSTRM_BOMBAY_HIGH_VGO_5  -1  PBAL_DIESEL_P_5          1
    TBL_BOMBAY_HIGH_VGO_DIESEL_P_5  QUAL_DIESEL_P_5          -301.4
    TBL_BOMBAY_HIGH_VGO_FUELOIL_5  TSTRM_BOMBAY_HIGH_VGO_5  -1  PBAL_FUELOIL_5           1
    TBL_BOMBAY_HIGH_VGO_FUELOIL_5  QUAL_FUELOIL_5           -34951.4
    SLACK_BOMBAY_HIGH_RESIDUE_5  COST                     -180  STRM_BOMBAY_HIGH_RESIDUE_5 -1
    HDT_BOMBAY_HIGH_RESIDUE_5  COST                     -240  STRM_BOMBAY_HIGH_RESIDUE_5 -1
    HDT_BOMBAY_HIGH_RESIDUE_5  TSTRM_BOMBAY_HIGH_RESIDUE_5 1  HDTCAP_5                 1
    BL_BOMBAY_HIGH_RESIDUE_FUELOIL_5  STRM_BOMBAY_HIGH_RESIDUE_5 -1  PBAL_FUELOIL_5           1
    BL_BOMBAY_HIGH_RESIDUE_FUELOIL_5  QUAL_FUELOIL_5           -32660
    TSLACK_BOMBAY_HIGH_RESIDUE_5  COST                     -180  TSTRM_BOMBAY_HIGH_RESIDUE_5 -1
    TBL_BOMBAY_HIGH_RESIDUE_FUELOIL_5  TSTRM_BOMBAY_HIGH_RESIDUE_5 -1  PBAL_FUELOIL_5           1
    TBL_BOMBAY_HIGH_RESIDUE_FUELOIL_5  QUAL_FUELOIL_5           -34906.4
    FSLACK_BOMBAY_HIGH_NAPHTHA_5  COST                     -180  FSTRM_BOMBAY_HIGH_NAPHTHA_5 -1
    FBL_BOMBAY_HIGH_NAPHTHA_GASOLINE_5  FSTRM_BOMBAY_HIGH_NAPHTHA_5 -1  PBAL_GASOLINE_5          1
    FBL_BOMBAY_HIGH_NAPHTHA_GASOLINE_5  QUAL_GASOLINE_5          -43.7
    FBL_BOMBAY_HIGH_NAPHTHA_JET_5  FSTRM_BOMBAY_HIGH_NAPHTHA_5 -1  PBAL_JET_5               1
    FBL_BOMBAY_HIGH_NAPHTHA_JET_5  QUAL_JET_5               -2493.7
    FSLACK_BOMBAY_HIGH_DIESEL_5  COST                     -180  FSTRM_BOMBAY_HIGH_DIESEL_5 -1
    FBL_BOMBAY_HIGH_DIESEL_DIESEL_P_5  FSTRM_BOMBAY_HIGH_DIESEL_5 -1  PBAL_DIESEL_P_5          1
    FBL_BOMBAY_HIGH_DIESEL_DIESEL_P_5  QUAL_DIESEL_P_5          -176.75
    FBL_BOMBAY_HIGH_DIESEL_FUELOIL_5  FSTRM_BOMBAY_HIGH_DIESEL_5 -1  PBAL_FUELOIL_5           1
    FBL_BOMBAY_HIGH_DIESEL_FUELOIL_5  QUAL_FUELOIL_5           -34826.75
    BUY_ARAB_LIGHT_5          COST                     -6420  CBAL_ARAB_LIGHT_5        1
    INVC_ARAB_LIGHT_5         COST                     -77.04  CBAL_ARAB_LIGHT_5        -1
    INVC_ARAB_LIGHT_5         CBAL_ARAB_LIGHT_6        1
    CHG_ARAB_LIGHT_5          COST                     -145  CBAL_ARAB_LIGHT_5        -1
    CHG_ARAB_LIGHT_5          CDUCAP_5                 1  STRM_ARAB_LIGHT_NAPHTHA_5 0.22
    CHG_ARAB_LIGHT_5          STRM_ARAB_LIGHT_KERO_5   0.17  STRM_ARAB_LIGHT_DIESEL_5 0.23
    CHG_ARAB_LIGHT_5          STRM_ARAB_LIGHT_VGO_5    0.22  STRM_ARAB_LIGHT_RESIDUE_5 0.16
    SLACK_ARAB_LIGHT_NAPHTHA_5  COST                     -180  STRM_ARAB_LIGHT_NAPHTHA_5 -1
    HDT_ARAB_LIGHT_NAPHTHA_5  COST                     -240  STRM_ARAB_LIGHT_NAPHTHA_5 -1
    HDT_ARAB_LIGHT_NAPHTHA_5  TSTRM_ARAB_LIGHT_NAPHTHA_5 1  HDTCAP_5                 1
    BL_ARAB_LIGHT_NAPHTHA_GASOLINE_5  STRM_ARAB_LIGHT_NAPHTHA_5 -1  PBAL_GASOLINE_5          1
    BL_ARAB_LIGHT_NAPHTHA_GASOLINE_5  QUAL_GASOLINE_5          330
    BL_ARAB_LIGHT_NAPHTHA_JET_5  STRM_ARAB_LIGHT_NAPHTHA_5 -1  PBAL_JET_5               1
    BL_ARAB_LIGHT_NAPHTHA_JET_5  QUAL_JET_5               -2120
    TSLACK_ARAB_LIGHT_NAPHTHA_5  COST                     -180  TSTRM_ARAB_LIGHT_NAPHTHA_5 -1
    TBL_ARAB_LIGHT_NAPHTHA_GASOLINE_5  TSTRM_ARAB_LIGHT_NAPHTHA_5 -1  PBAL_GASOLINE_5          1
    TBL_ARAB_LIGHT_NAPHTHA_GASOLINE_5  QUAL_GASOLINE_5          -34.8
    TBL_ARAB_LIGHT_NAPHTHA_JET_5  TSTRM_ARAB_LIGHT_NAPHTHA_5 -1  PBAL_JET_5               1
    TBL_ARAB_LIGHT_NAPHTHA_JET_5  QUAL_JET_5               -2484.8
    SLACK_ARAB_LIGHT_KERO_5   COST                     -180  STRM_ARAB_LIGHT_KERO_5   -1
    HDT_ARAB_LIGHT_KERO_5     COST                     -240  STRM_ARAB_LIGHT_KERO_5   -1
    HDT_ARAB_LIGHT_KERO_5     TSTRM_ARAB_LIGHT_KERO_5  1  HDTCAP_5                 1
    BL_ARAB_LIGHT_KERO_GASOLINE_5  STRM_ARAB_LIGHT_KERO_5   -1  PBAL_GASOLINE_5          1
    BL_ARAB_LIGHT_KERO_GASOLINE_5  QUAL_GASOLINE_5          2800
    BL_ARAB_LIGHT_KERO_JET_5  STRM_ARAB_LIGHT_KERO_5   -1  PBAL_JET_5               1
    BL_ARAB_LIGHT_KERO_JET_5  QUAL_JET_5               350
    BL_ARAB_LIGHT_KERO_DIESEL_P_5  STRM_ARAB_LIGHT_KERO_5   -1  PBAL_DIESEL_P_5          1
    BL_ARAB_LIGHT_KERO_DIESEL_P_5  QUAL_DIESEL_P_5          2500
    TSLACK_ARAB_LIGHT_KERO_5  COST                     -180  TSTRM_ARAB_LIGHT_KERO_5  -1
    TBL_ARAB_LIGHT_KERO_GASOLINE_5  TSTRM_ARAB_LIGHT_KERO_5  -1  PBAL_GASOLINE_5          1
    TBL_ARAB_LIGHT_KERO_GASOLINE_5  QUAL_GASOLINE_5          64
    TBL_ARAB_LIGHT_KERO_JET_5  TSTRM_ARAB_LIGHT_KERO_5  -1  PBAL_JET_5               1
    TBL_ARAB_LIGHT_KERO_JET_5  QUAL_JET_5               -2386
    TBL_ARAB_LIGHT_KERO_DIESEL_P_5  TSTRM_ARAB_LIGHT_KERO_5  -1  PBAL_DIESEL_P_5          1
    TBL_ARAB_LIGHT_KERO_DIESEL_P_5  QUAL_DIESEL_P_5          -236
    SLACK_ARAB_LIGHT_DIESEL_5  COST                     -180  STRM_ARAB_LIGHT_DIESEL_5 -1
    HDT_ARAB_LIGHT_DIESEL_5   COST                     -240  STRM_ARAB_LIGHT_DIESEL_5 -1
    HDT_ARAB_LIGHT_DIESEL_5   TSTRM_ARAB_LIGHT_DIESEL_5 1  HDTCAP_5                 1
    BL_ARAB_LIGHT_DIESEL_DIESEL_P_5  STRM_ARAB_LIGHT_DIESEL_5 -1  PBAL_DIESEL_P_5          1
    BL_ARAB_LIGHT_DIESEL_DIESEL_P_5  QUAL_DIESEL_P_5          10100
    BL_ARAB_LIGHT_DIESEL_FUELOIL_5  STRM_ARAB_LIGHT_DIESEL_5 -1  PBAL_FUELOIL_5           1
    BL_ARAB_LIGHT_DIESEL_FUELOIL_5  QUAL_FUELOIL_5           -24550
    TSLACK_ARAB_LIGHT_DIESEL_5  COST                     -180  TSTRM_ARAB_LIGHT_DIESEL_5 -1
    TBL_ARAB_LIGHT_DIESEL_DIESEL_P_5  TSTRM_ARAB_LIGHT_DIESEL_5 -1  PBAL_DIESEL_P_5          1
    TBL_ARAB_LIGHT_DIESEL_DIESEL_P_5  QUAL_DIESEL_P_5          68
    TBL_ARAB_LIGHT_DIESEL_FUELOIL_5  TSTRM_ARAB_LIGHT_DIESEL_5 -1  PBAL_FUELOIL_5           1
    TBL_ARAB_LIGHT_DIESEL_FUELOIL_5  QUAL_FUELOIL_5           -34582
    SLACK_ARAB_LIGHT_VGO_5    COST                     -180  STRM_ARAB_LIGHT_VGO_5    -1
    HDT_ARAB_LIGHT_VGO_5      COST                     -240  STRM_ARAB_LIGHT_VGO_5    -1
    HDT_ARAB_LIGHT_VGO_5      TSTRM_ARAB_LIGHT_VGO_5   1  HDTCAP_5                 1
    FCC_ARAB_LIGHT_5          COST                     -310  STRM_ARAB_LIGHT_VGO_5    -1
    FCC_ARAB_LIGHT_5          FSTRM_ARAB_LIGHT_NAPHTHA_5 0.55  FSTRM_ARAB_LIGHT_DIESEL_5 0.25
    FCC_ARAB_LIGHT_5          FCCCAP_5                 1
    BL_ARAB_LIGHT_VGO_DIESEL_P_5  STRM_ARAB_LIGHT_VGO_5    -1  PBAL_DIESEL_P_5          1
    BL_ARAB_LIGHT_VGO_DIESEL_P_5  QUAL_DIESEL_P_5          25300
    BL_ARAB_LIGHT_VGO_FUELOIL_5  STRM_ARAB_LIGHT_VGO_5    -1  PBAL_FUELOIL_5           1
    BL_ARAB_LIGHT_VGO_FUELOIL_5  QUAL_FUELOIL_5           -9350
    TSLACK_ARAB_LIGHT_VGO_5   COST                     -180  TSTRM_ARAB_LIGHT_VGO_5   -1
    TBL_ARAB_LIGHT_VGO_DIESEL_P_5  TSTRM_ARAB_LIGHT_VGO_5   -1  PBAL_DIESEL_P_5          1
    TBL_ARAB_LIGHT_VGO_DIESEL_P_5  QUAL_DIESEL_P_5          676
    TBL_ARAB_LIGHT_VGO_FUELOIL_5  TSTRM_ARAB_LIGHT_VGO_5   -1  PBAL_FUELOIL_5           1
    TBL_ARAB_LIGHT_VGO_FUELOIL_5  QUAL_FUELOIL_5           -33974
    SLACK_ARAB_LIGHT_RESIDUE_5  COST                     -180  STRM_ARAB_LIGHT_RESIDUE_5 -1
    HDT_ARAB_LIGHT_RESIDUE_5  COST                     -240  STRM_ARAB_LIGHT_RESIDUE_5 -1
    HDT_ARAB_LIGHT_RESIDUE_5  TSTRM_ARAB_LIGHT_RESIDUE_5 1  HDTCAP_5                 1
    BL_ARAB_LIGHT_RESIDUE_FUELOIL_5  STRM_ARAB_LIGHT_RESIDUE_5 -1  PBAL_FUELOIL_5           1
    BL_ARAB_LIGHT_RESIDUE_FUELOIL_5  QUAL_FUELOIL_5           14400
    TSLACK_ARAB_LIGHT_RESIDUE_5  COST                     -180  TSTRM_ARAB_LIGHT_RESIDUE_5 -1
    TBL_ARAB_LIGHT_RESIDUE_FUELOIL_5  TSTRM_ARAB_LIGHT_RESIDUE_5 -1  PBAL_FUELOIL_5           1
    TBL_ARAB_LIGHT_RESIDUE_FUELOIL_5  QUAL_FUELOIL_5           -33024
    FSLACK_ARAB_LIGHT_NAPHTHA_5  COST                     -180  FSTRM_ARAB_LIGHT_NAPHTHA_5 -1
    FBL_ARAB_LIGHT_NAPHTHA_GASOLINE_5  FSTRM_ARAB_LIGHT_NAPHTHA_5 -1  PBAL_GASOLINE_5          1
    FBL_ARAB_LIGHT_NAPHTHA_GASOLINE_5  QUAL_GASOLINE_5          83
    FBL_ARAB_LIGHT_NAPHTHA_JET_5  FSTRM_ARAB_LIGHT_NAPHTHA_5 -1  PBAL_JET_5               1
    FBL_ARAB_LIGHT_NAPHTHA_JET_5  QUAL_JET_5               -2367
    FSLACK_ARAB_LIGHT_DIESEL_5  COST                     -180  FSTRM_ARAB_LIGHT_DIESEL_5 -1
    FBL_ARAB_LIGHT_DIESEL_DIESEL_P_5  FSTRM_ARAB_LIGHT_DIESEL_5 -1  PBAL_DIESEL_P_5          1
    FBL_ARAB_LIGHT_DIESEL_DIESEL_P_5  QUAL_DIESEL_P_5          3307.5
    FBL_ARAB_LIGHT_DIESEL_FUELOIL_5  FSTRM_ARAB_LIGHT_DIESEL_5 -1  PBAL_FUELOIL_5           1
    FBL_ARAB_LIGHT_DIESEL_FUELOIL_5  QUAL_FUELOIL_5           -31342.5
    BUY_ARAB_HEAVY_5          COST                     -5980  CBAL_ARAB_HEAVY_5        1
    INVC_ARAB_HEAVY_5         COST                     -71.76  CBAL_ARAB_HEAVY_5        -1
    INVC_ARAB_HEAVY_5         CBAL_ARAB_HEAVY_6        1
    CHG_ARAB_HEAVY_5          COST                     -145  CBAL_ARAB_HEAVY_5        -1
    CHG_ARAB_HEAVY_5          CDUCAP_5                 1  STRM_ARAB_HEAVY_NAPHTHA_5 0.16
    CHG_ARAB_HEAVY_5          STRM_ARAB_HEAVY_KERO_5   0.14  STRM_ARAB_HEAVY_DIESEL_5 0.21
    CHG_ARAB_HEAVY_5          STRM_ARAB_HEAVY_VGO_5    0.25  STRM_ARAB_HEAVY_RESIDUE_5 0.24
    SLACK_ARAB_HEAVY_NAPHTHA_5  COST                     -180  STRM_ARAB_HEAVY_NAPHTHA_5 -1
    HDT_ARAB_HEAVY_NAPHTHA_5  COST                     -240  STRM_ARAB_HEAVY_NAPHTHA_5 -1
    HDT_ARAB_HEAVY_NAPHTHA_5  TSTRM_ARAB_HEAVY_NAPHTHA_5 1  HDTCAP_5                 1
    BL_ARAB_HEAVY_NAPHTHA_GASOLINE_5  STRM_ARAB_HEAVY_NAPHTHA_5 -1  PBAL_GASOLINE_5          1
    BL_ARAB_HEAVY_NAPHTHA_GASOLINE_5  QUAL_GASOLINE_5          530
    BL_ARAB_HEAVY_NAPHTHA_JET_5  STRM_ARAB_HEAVY_NAPHTHA_5 -1  PBAL_JET_5               1
    BL_ARAB_HEAVY_NAPHTHA_JET_5  QUAL_JET_5               -1920
    TSLACK_ARAB_HEAVY_NAPHTHA_5  COST                     -180  TSTRM_ARAB_HEAVY_NAPHTHA_5 -1
    TBL_ARAB_HEAVY_NAPHTHA_GASOLINE_5  TSTRM_ARAB_HEAVY_NAPHTHA_5 -1  PBAL_GASOLINE_5          1
    TBL_ARAB_HEAVY_NAPHTHA_GASOLINE_5  QUAL_GASOLINE_5          -26.8
    TBL_ARAB_HEAVY_NAPHTHA_JET_5  TSTRM_ARAB_HEAVY_NAPHTHA_5 -1  PBAL_JET_5               1
    TBL_ARAB_HEAVY_NAPHTHA_JET_5  QUAL_JET_5               -2476.8
    SLACK_ARAB_HEAVY_KERO_5   COST                     -180  STRM_ARAB_HEAVY_KERO_5   -1
    HDT_ARAB_HEAVY_KERO_5     COST                     -240  STRM_ARAB_HEAVY_KERO_5   -1
    HDT_ARAB_HEAVY_KERO_5     TSTRM_ARAB_HEAVY_KERO_5  1  HDTCAP_5                 1
    BL_ARAB_HEAVY_KERO_GASOLINE_5  STRM_ARAB_HEAVY_KERO_5   -1  PBAL_GASOLINE_5          1
    BL_ARAB_HEAVY_KERO_GASOLINE_5  QUAL_GASOLINE_5          4300
    BL_ARAB_HEAVY_KERO_JET_5  STRM_ARAB_HEAVY_KERO_5   -1  PBAL_JET_5               1
    BL_ARAB_HEAVY_KERO_JET_5  QUAL_JET_5               1850
    BL_ARAB_HEAVY_KERO_DIESEL_P_5  STRM_ARAB_HEAVY_KERO_5   -1  PBAL_DIESEL_P_5          1
    BL_ARAB_HEAVY_KERO_DIESEL_P_5  QUAL_DIESEL_P_5          4000
    TSLACK_ARAB_HEAVY_KERO_5  COST                     -180  TSTRM_ARAB_HEAVY_KERO_5  -1
    TBL_ARAB_HEAVY_KERO_GASOLINE_5  TSTRM_ARAB_HEAVY_KERO_5  -1  PBAL_GASOLINE_5          1
    TBL_ARAB_HEAVY_KERO_GASOLINE_5  QUAL_GASOLINE_5          124
    TBL_ARAB_HEAVY_KERO_JET_5  TSTRM_ARAB_HEAVY_KERO_5  -1  PBAL_JET_5               1
    TBL_ARAB_HEAVY_KERO_JET_5  QUAL_JET_5               -2326
    TBL_ARAB_HEAVY_KERO_DIESEL_P_5  TSTRM_ARAB_HEAVY_KERO_5  -1  PBAL_DIESEL_P_5          1
    TBL_ARAB_HEAVY_KERO_DIESEL_P_5  QUAL_DIESEL_P_5          -176
    SLACK_ARAB_HEAVY_DIESEL_5  COST                     -180  STRM_ARAB_HEAVY_DIESEL_5 -1
    HDT_ARAB_HEAVY_DIESEL_5   COST                     -240  STRM_ARAB_HEAVY_DIESEL_5 -1
    HDT_ARAB_HEAVY_DIESEL_5   TSTRM_ARAB_HEAVY_DIESEL_5 1  HDTCAP_5                 1
    BL_ARAB_HEAVY_DIESEL_DIESEL_P_5  STRM_ARAB_HEAVY_DIESEL_5 -1  PBAL_DIESEL_P_5          1
    BL_ARAB_HEAVY_DIESEL_DIESEL_P_5  QUAL_DIESEL_P_5          15600
    BL_ARAB_HEAVY_DIESEL_FUELOIL_5  STRM_ARAB_HEAVY_DIESEL_5 -1  PBAL_FUELOIL_5           1
    BL_ARAB_HEAVY_DIESEL_FUELOIL_5  QUAL_FUELOIL_5           -19050
    TSLACK_ARAB_HEAVY_DIESEL_5  COST                     -180  TSTRM_ARAB_HEAVY_DIESEL_5 -1
    TBL_ARAB_HEAVY_DIESEL_DIESEL_P_5  TSTRM_ARAB_HEAVY_DIESEL_5 -1  PBAL_DIESEL_P_5          1
    TBL_ARAB_HEAVY_DIESEL_DIESEL_P_5  QUAL_DIESEL_P_5          288
    TBL_ARAB_HEAVY_DIESEL_FUELOIL_5  TSTRM_ARAB_HEAVY_DIESEL_5 -1  PBAL_FUELOIL_5           1
    TBL_ARAB_HEAVY_DIESEL_FUELOIL_5  QUAL_FUELOIL_5           -34362
    SLACK_ARAB_HEAVY_VGO_5    COST                     -180  STRM_ARAB_HEAVY_VGO_5    -1
    HDT_ARAB_HEAVY_VGO_5      COST                     -240  STRM_ARAB_HEAVY_VGO_5    -1
    HDT_ARAB_HEAVY_VGO_5      TSTRM_ARAB_HEAVY_VGO_5   1  HDTCAP_5                 1
    FCC_ARAB_HEAVY_5          COST                     -310  STRM_ARAB_HEAVY_VGO_5    -1
    FCC_ARAB_HEAVY_5          FSTRM_ARAB_HEAVY_NAPHTHA_5 0.55  FSTRM_ARAB_HEAVY_DIESEL_5 0.25
    FCC_ARAB_HEAVY_5          FCCCAP_5                 1
    BL_ARAB_HEAVY_VGO_DIESEL_P_5  STRM_ARAB_HEAVY_VGO_5    -1  PBAL_DIESEL_P_5          1
    BL_ARAB_HEAVY_VGO_DIESEL_P_5  QUAL_DIESEL_P_5          38800
    BL_ARAB_HEAVY_VGO_FUELOIL_5  STRM_ARAB_HEAVY_VGO_5    -1  PBAL_FUELOIL_5           1
    BL_ARAB_HEAVY_VGO_FUELOIL_5  QUAL_FUELOIL_5           4150
    TSLACK_ARAB_HEAVY_VGO_5   COST                     -180  TSTRM_ARAB_HEAVY_VGO_5   -1
    TBL_ARAB_HEAVY_VGO_DIESEL_P_5  TSTRM_ARAB_HEAVY_VGO_5   -1  PBAL_DIESEL_P_5          1
    TBL_ARAB_HEAVY_VGO_DIESEL_P_5  QUAL_DIESEL_P_5          1216
    TBL_ARAB_HEAVY_VGO_FUELOIL_5  TSTRM_ARAB_HEAVY_VGO_5   -1  PBAL_FUELOIL_5           1
    TBL_ARAB_HEAVY_VGO_FUELOIL_5  QUAL_FUELOIL_5           -33434
    SLACK_ARAB_HEAVY_RESIDUE_5  COST                     -180  STRM_ARAB_HEAVY_RESIDUE_5 -1
    HDT_ARAB_HEAVY_RESIDUE_5  COST                     -240  STRM_ARAB_HEAVY_RESIDUE_5 -1
    HDT_ARAB_HEAVY_RESIDUE_5  TSTRM_ARAB_HEAVY_RESIDUE_5 1  HDTCAP_5                 1
    BL_ARAB_HEAVY_RESIDUE_FUELOIL_5  STRM_ARAB_HEAVY_RESIDUE_5 -1  PBAL_FUELOIL_5           1
    BL_ARAB_HEAVY_RESIDUE_FUELOIL_5  QUAL_FUELOIL_5           40400
    TSLACK_ARAB_HEAVY_RESIDUE_5  COST                     -180  TSTRM_ARAB_HEAVY_RESIDUE_5 -1
    TBL_ARAB_HEAVY_RESIDUE_FUELOIL_5  TSTRM_ARAB_HEAVY_RESIDUE_5 -1  PBAL_FUELOIL_5           1
    TBL_ARAB_HEAVY_RESIDUE_FUELOIL_5  QUAL_FUELOIL_5           -31984
    FSLACK_ARAB_HEAVY_NAPHTHA_5  COST                     -180  FSTRM_ARAB_HEAVY_NAPHTHA_5 -1
    FBL_ARAB_HEAVY_NAPHTHA_GASOLINE_5  FSTRM_ARAB_HEAVY_NAPHTHA_5 -1  PBAL_GASOLINE_5          1
    FBL_ARAB_HEAVY_NAPHTHA_GASOLINE_5  QUAL_GASOLINE_5          153
    FBL_ARAB_HEAVY_NAPHTHA_JET_5  FSTRM_ARAB_HEAVY_NAPHTHA_5 -1  PBAL_JET_5               1
    FBL_ARAB_HEAVY_NAPHTHA_JET_5  QUAL_JET_5               -2297
    FSLACK_ARAB_HEAVY_DIESEL_5  COST                     -180  FSTRM_ARAB_HEAVY_DIESEL_5 -1
    FBL_ARAB_HEAVY_DIESEL_DIESEL_P_5  FSTRM_ARAB_HEAVY_DIESEL_5 -1  PBAL_DIESEL_P_5          1
    FBL_ARAB_HEAVY_DIESEL_DIESEL_P_5  QUAL_DIESEL_P_5          5232.5
    FBL_ARAB_HEAVY_DIESEL_FUELOIL_5  FSTRM_ARAB_HEAVY_DIESEL_5 -1  PBAL_FUELOIL_5           1
    FBL_ARAB_HEAVY_DIESEL_FUELOIL_5  QUAL_FUELOIL_5           -29417.5
    BUY_BASRAH_5              COST                     -6100  CBAL_BASRAH_5            1
    INVC_BASRAH_5             COST                     -73.2  CBAL_BASRAH_5            -1
    INVC_BASRAH_5             CBAL_BASRAH_6            1
    CHG_BASRAH_5              COST                     -145  CBAL_BASRAH_5            -1
    CHG_BASRAH_5              CDUCAP_5                 1  STRM_BASRAH_NAPHTHA_5    0.18
    CHG_BASRAH_5              STRM_BASRAH_KERO_5       0.15  STRM_BASRAH_DIESEL_5     0.22
    CHG_BASRAH_5              STRM_BASRAH_VGO_5        0.24  STRM_BASRAH_RESIDUE_5    0.21
    SLACK_BASRAH_NAPHTHA_5    COST                     -180  STRM_BASRAH_NAPHTHA_5    -1
    HDT_BASRAH_NAPHTHA_5      COST                     -240  STRM_BASRAH_NAPHTHA_5    -1
    HDT_BASRAH_NAPHTHA_5      TSTRM_BASRAH_NAPHTHA_5   1  HDTCAP_5                 1
    BL_BASRAH_NAPHTHA_GASOLINE_5  STRM_BASRAH_NAPHTHA_5    -1  PBAL_GASOLINE_5          1
    BL_BASRAH_NAPHTHA_GASOLINE_5  QUAL_GASOLINE_5          440
    BL_BASRAH_NAPHTHA_JET_5   STRM_BASRAH_NAPHTHA_5    -1  PBAL_JET_5               1
    BL_BASRAH_NAPHTHA_JET_5   QUAL_JET_5               -2010
    TSLACK_BASRAH_NAPHTHA_5   COST                     -180  TSTRM_BASRAH_NAPHTHA_5   -1
    TBL_BASRAH_NAPHTHA_GASOLINE_5  TSTRM_BASRAH_NAPHTHA_5   -1  PBAL_GASOLINE_5          1
    TBL_BASRAH_NAPHTHA_GASOLINE_5  QUAL_GASOLINE_5          -30.4
    TBL_BASRAH_NAPHTHA_JET_5  TSTRM_BASRAH_NAPHTHA_5   -1  PBAL_JET_5               1
    TBL_BASRAH_NAPHTHA_JET_5  QUAL_JET_5               -2480.4
    SLACK_BASRAH_KERO_5       COST                     -180  STRM_BASRAH_KERO_5       -1
    HDT_BASRAH_KERO_5         COST                     -240  STRM_BASRAH_KERO_5       -1
    HDT_BASRAH_KERO_5         TSTRM_BASRAH_KERO_5      1  HDTCAP_5                 1
    BL_BASRAH_KERO_GASOLINE_5  STRM_BASRAH_KERO_5       -1  PBAL_GASOLINE_5          1
    BL_BASRAH_KERO_GASOLINE_5  QUAL_GASOLINE_5          3625
    BL_BASRAH_KERO_JET_5      STRM_BASRAH_KERO_5       -1  PBAL_JET_5               1
    BL_BASRAH_KERO_JET_5      QUAL_JET_5               1175
    BL_BASRAH_KERO_DIESEL_P_5  STRM_BASRAH_KERO_5       -1  PBAL_DIESEL_P_5          1
    BL_BASRAH_KERO_DIESEL_P_5  QUAL_DIESEL_P_5          3325
    TSLACK_BASRAH_KERO_5      COST                     -180  TSTRM_BASRAH_KERO_5      -1
    TBL_BASRAH_KERO_GASOLINE_5  TSTRM_BASRAH_KERO_5      -1  PBAL_GASOLINE_5          1
    TBL_BASRAH_KERO_GASOLINE_5  QUAL_GASOLINE_5          97
    TBL_BASRAH_KERO_JET_5     TSTRM_BASRAH_KERO_5      -1  PBAL_JET_5               1
    TBL_BASRAH_KERO_JET_5     QUAL_JET_5               -2353
    TBL_BASRAH_KERO_DIESEL_P_5  TSTRM_BASRAH_KERO_5      -1  PBAL_DIESEL_P_5          1
    TBL_BASRAH_KERO_DIESEL_P_5  QUAL_DIESEL_P_5          -203
    SLACK_BASRAH_DIESEL_5     COST                     -180  STRM_BASRAH_DIESEL_5     -1
    HDT_BASRAH_DIESEL_5       COST                     -240  STRM_BASRAH_DIESEL_5     -1
    HDT_BASRAH_DIESEL_5       TSTRM_BASRAH_DIESEL_5    1  HDTCAP_5                 1
    BL_BASRAH_DIESEL_DIESEL_P_5  STRM_BASRAH_DIESEL_5     -1  PBAL_DIESEL_P_5          1
    BL_BASRAH_DIESEL_DIESEL_P_5  QUAL_DIESEL_P_5          13125
    BL_BASRAH_DIESEL_FUELOIL_5  STRM_BASRAH_DIESEL_5     -1  PBAL_FUELOIL_5           1
    BL_BASRAH_DIESEL_FUELOIL_5  QUAL_FUELOIL_5           -21525
    TSLACK_BASRAH_DIESEL_5    COST                     -180  TSTRM_BASRAH_DIESEL_5    -1
    TBL_BASRAH_DIESEL_DIESEL_P_5  TSTRM_BASRAH_DIESEL_5    -1  PBAL_DIESEL_P_5          1
    TBL_BASRAH_DIESEL_DIESEL_P_5  QUAL_DIESEL_P_5          189
    TBL_BASRAH_DIESEL_FUELOIL_5  TSTRM_BASRAH_DIESEL_5    -1  PBAL_FUELOIL_5           1
    TBL_BASRAH_DIESEL_FUELOIL_5  QUAL_FUELOIL_5           -34461
    SLACK_BASRAH_VGO_5        COST                     -180  STRM_BASRAH_VGO_5        -1
    HDT_BASRAH_VGO_5          COST                     -240  STRM_BASRAH_VGO_5        -1
    HDT_BASRAH_VGO_5          TSTRM_BASRAH_VGO_5       1  HDTCAP_5                 1
    FCC_BASRAH_5              COST                     -310  STRM_BASRAH_VGO_5        -1
    FCC_BASRAH_5              FSTRM_BASRAH_NAPHTHA_5   0.55  FSTRM_BASRAH_DIESEL_5    0.25
    FCC_BASRAH_5              FCCCAP_5                 1
    BL_BASRAH_VGO_DIESEL_P_5  STRM_BASRAH_VGO_5        -1  PBAL_DIESEL_P_5          1
    BL_BASRAH_VGO_DIESEL_P_5  QUAL_DIESEL_P_5          32725
    BL_BASRAH_VGO_FUELOIL_5   STRM_BASRAH_VGO_5        -1  PBAL_FUELOIL_5           1
    BL_BASRAH_VGO_FUELOIL_5   QUAL_FUELOIL_5           -1925
    TSLACK_BASRAH_VGO_5       COST                     -180  TSTRM_BASRAH_VGO_5       -1
    TBL_BASRAH_VGO_DIESEL_P_5  TSTRM_BASRAH_VGO_5       -1  PBAL_DIESEL_P_5          1
    TBL_BASRAH_VGO_DIESEL_P_5  QUAL_DIESEL_P_5          973
    TBL_BASRAH_VGO_FUELOIL_5  TSTRM_BASRAH_VGO_5       -1  PBAL_FUELOIL_5           1
    TBL_BASRAH_VGO_FUELOIL_5  QUAL_FUELOIL_5           -33677
    SLACK_BASRAH_RESIDUE_5    COST                     -180  STRM_BASRAH_RESIDUE_5    -1
    HDT_BASRAH_RESIDUE_5      COST                     -240  STRM_BASRAH_RESIDUE_5    -1
    HDT_BASRAH_RESIDUE_5      TSTRM_BASRAH_RESIDUE_5   1  HDTCAP_5                 1
    BL_BASRAH_RESIDUE_FUELOIL_5  STRM_BASRAH_RESIDUE_5    -1  PBAL_FUELOIL_5           1
    BL_BASRAH_RESIDUE_FUELOIL_5  QUAL_FUELOIL_5           28700
    TSLACK_BASRAH_RESIDUE_5   COST                     -180  TSTRM_BASRAH_RESIDUE_5   -1
    TBL_BASRAH_RESIDUE_FUELOIL_5  TSTRM_BASRAH_RESIDUE_5   -1  PBAL_FUELOIL_5           1
    TBL_BASRAH_RESIDUE_FUELOIL_5  QUAL_FUELOIL_5           -32452
    FSLACK_BASRAH_NAPHTHA_5   COST                     -180  FSTRM_BASRAH_NAPHTHA_5   -1
    FBL_BASRAH_NAPHTHA_GASOLINE_5  FSTRM_BASRAH_NAPHTHA_5   -1  PBAL_GASOLINE_5          1
    FBL_BASRAH_NAPHTHA_GASOLINE_5  QUAL_GASOLINE_5          121.5
    FBL_BASRAH_NAPHTHA_JET_5  FSTRM_BASRAH_NAPHTHA_5   -1  PBAL_JET_5               1
    FBL_BASRAH_NAPHTHA_JET_5  QUAL_JET_5               -2328.5
    FSLACK_BASRAH_DIESEL_5    COST                     -180  FSTRM_BASRAH_DIESEL_5    -1
    FBL_BASRAH_DIESEL_DIESEL_P_5  FSTRM_BASRAH_DIESEL_5    -1  PBAL_DIESEL_P_5          1
    FBL_BASRAH_DIESEL_DIESEL_P_5  QUAL_DIESEL_P_5          4366.25
    FBL_BASRAH_DIESEL_FUELOIL_5  FSTRM_BASRAH_DIESEL_5    -1  PBAL_FUELOIL_5           1
    FBL_BASRAH_DIESEL_FUELOIL_5  QUAL_FUELOIL_5           -30283.75
    BUY_URALS_5               COST                     -6260  CBAL_URALS_5             1
    INVC_URALS_5              COST                     -75.12  CBAL_URALS_5             -1
    INVC_URALS_5              CBAL_URALS_6             1
    CHG_URALS_5               COST                     -145  CBAL_URALS_5             -1
    CHG_URALS_5               CDUCAP_5                 1  STRM_URALS_NAPHTHA_5     0.2
    CHG_URALS_5               STRM_URALS_KERO_5        0.16  STRM_URALS_DIESEL_5      0.24
    CHG_URALS_5               STRM_URALS_VGO_5         0.23  STRM_URALS_RESIDUE_5     0.17
    SLACK_URALS_NAPHTHA_5     COST                     -180  STRM_URALS_NAPHTHA_5     -1
    HDT_URALS_NAPHTHA_5       COST                     -240  STRM_URALS_NAPHTHA_5     -1
    HDT_URALS_NAPHTHA_5       TSTRM_URALS_NAPHTHA_5    1  HDTCAP_5                 1
    BL_URALS_NAPHTHA_GASOLINE_5  STRM_URALS_NAPHTHA_5     -1  PBAL_GASOLINE_5          1
    BL_URALS_NAPHTHA_GASOLINE_5  QUAL_GASOLINE_5          226
    BL_URALS_NAPHTHA_JET_5    STRM_URALS_NAPHTHA_5     -1  PBAL_JET_5               1
    BL_URALS_NAPHTHA_JET_5    QUAL_JET_5               -2224
    TSLACK_URALS_NAPHTHA_5    COST                     -180  TSTRM_URALS_NAPHTHA_5    -1
    TBL_URALS_NAPHTHA_GASOLINE_5  TSTRM_URALS_NAPHTHA_5    -1  PBAL_GASOLINE_5          1
    TBL_URALS_NAPHTHA_GASOLINE_5  QUAL_GASOLINE_5          -38.96
    TBL_URALS_NAPHTHA_JET_5   TSTRM_URALS_NAPHTHA_5    -1  PBAL_JET_5               1
    TBL_URALS_NAPHTHA_JET_5   QUAL_JET_5               -2488.96
    SLACK_URALS_KERO_5        COST                     -180  STRM_URALS_KERO_5        -1
    HDT_URALS_KERO_5          COST                     -240  STRM_URALS_KERO_5        -1
    HDT_URALS_KERO_5          TSTRM_URALS_KERO_5       1  HDTCAP_5                 1
    BL_URALS_KERO_GASOLINE_5  STRM_URALS_KERO_5        -1  PBAL_GASOLINE_5          1
    BL_URALS_KERO_GASOLINE_5  QUAL_GASOLINE_5          2020
    BL_URALS_KERO_JET_5       STRM_URALS_KERO_5        -1  PBAL_JET_5               1
    BL_URALS_KERO_JET_5       QUAL_JET_5               -430
    BL_URALS_KERO_DIESEL_P_5  STRM_URALS_KERO_5        -1  PBAL_DIESEL_P_5          1
    BL_URALS_KERO_DIESEL_P_5  QUAL_DIESEL_P_5          1720
    TSLACK_URALS_KERO_5       COST                     -180  TSTRM_URALS_KERO_5       -1
    TBL_URALS_KERO_GASOLINE_5  TSTRM_URALS_KERO_5       -1  PBAL_GASOLINE_5          1
    TBL_URALS_KERO_GASOLINE_5  QUAL_GASOLINE_5          32.8
    TBL_URALS_KERO_JET_5      TSTRM_URALS_KERO_5       -1  PBAL_JET_5               1
    TBL_URALS_KERO_JET_5      QUAL_JET_5               -2417.2
    TBL_URALS_KERO_DIESEL_P_5  TSTRM_URALS_KERO_5       -1  PBAL_DIESEL_P_5          1
    TBL_URALS_KERO_DIESEL_P_5  QUAL_DIESEL_P_5          -267.2
    SLACK_URALS_DIESEL_5      COST                     -180  STRM_URALS_DIESEL_5      -1
    HDT_URALS_DIESEL_5        COST                     -240  STRM_URALS_DIESEL_5      -1
    HDT_URALS_DIESEL_5        TSTRM_URALS_DIESEL_5     1  HDTCAP_5                 1
    BL_URALS_DIESEL_DIESEL_P_5  STRM_URALS_DIESEL_5      -1  PBAL_DIESEL_P_5          1
    BL_URALS_DIESEL_DIESEL_P_5  QUAL_DIESEL_P_5          7240
    BL_URALS_DIESEL_FUELOIL_5  STRM_URALS_DIESEL_5      -1  PBAL_FUELOIL_5           1
    BL_URALS_DIESEL_FUELOIL_5  QUAL_FUELOIL_5           -27410
    TSLACK_URALS_DIESEL_5     COST                     -180  TSTRM_URALS_DIESEL_5     -1
    TBL_URALS_DIESEL_DIESEL_P_5  TSTRM_URALS_DIESEL_5     -1  PBAL_DIESEL_P_5          1
    TBL_URALS_DIESEL_DIESEL_P_5  QUAL_DIESEL_P_5          -46.4
    TBL_URALS_DIESEL_FUELOIL_5  TSTRM_URALS_DIESEL_5     -1  PBAL_FUELOIL_5           1
    TBL_URALS_DIESEL_FUELOIL_5  QUAL_FUELOIL_5           -34696.4
    SLACK_URALS_VGO_5         COST                     -180  STRM_URALS_VGO_5         -1
    HDT_URALS_VGO_5           COST                     -240  STRM_URALS_VGO_5         -1
    HDT_URALS_VGO_5           TSTRM_URALS_VGO_5        1  HDTCAP_5                 1
    FCC_URALS_5               COST                     -310  STRM_URALS_VGO_5         -1
    FCC_URALS_5               FSTRM_URALS_NAPHTHA_5    0.55  FSTRM_URALS_DIESEL_5     0.25
    FCC_URALS_5               FCCCAP_5                 1
    BL_URALS_VGO_DIESEL_P_5   STRM_URALS_VGO_5         -1  PBAL_DIESEL_P_5          1
    BL_URALS_VGO_DIESEL_P_5   QUAL_DIESEL_P_5          18280
    BL_URALS_VGO_FUELOIL_5    STRM_URALS_VGO_5         -1  PBAL_FUELOIL_5           1
    BL_URALS_VGO_FUELOIL_5    QUAL_FUELOIL_5           -16370
    TSLACK_URALS_VGO_5        COST                     -180  TSTRM_URALS_VGO_5        -1
    TBL_URALS_VGO_DIESEL_P_5  TSTRM_URALS_VGO_5        -1  PBAL_DIESEL_P_5          1
    TBL_URALS_VGO_DIESEL_P_5  QUAL_DIESEL_P_5          395.2
    TBL_URALS_VGO_FUELOIL_5   TSTRM_URALS_VGO_5        -1  PBAL_FUELOIL_5           1
    TBL_URALS_VGO_FUELOIL_5   QUAL_FUELOIL_5           -34254.8
    SLACK_URALS_RESIDUE_5     COST                     -180  STRM_URALS_RESIDUE_5     -1
    HDT_URALS_RESIDUE_5       COST                     -240  STRM_URALS_RESIDUE_5     -1
    HDT_URALS_RESIDUE_5       TSTRM_URALS_RESIDUE_5    1  HDTCAP_5                 1
    BL_URALS_RESIDUE_FUELOIL_5  STRM_URALS_RESIDUE_5     -1  PBAL_FUELOIL_5           1
    BL_URALS_RESIDUE_FUELOIL_5  QUAL_FUELOIL_5           880
    TSLACK_URALS_RESIDUE_5    COST                     -180  TSTRM_URALS_RESIDUE_5    -1
    TBL_URALS_RESIDUE_FUELOIL_5  TSTRM_URALS_RESIDUE_5    -1  PBAL_FUELOIL_5           1
    TBL_URALS_RESIDUE_FUELOIL_5  QUAL_FUELOIL_5           -33564.8
    FSLACK_URALS_NAPHTHA_5    COST                     -180  FSTRM_URALS_NAPHTHA_5    -1
    FBL_URALS_NAPHTHA_GASOLINE_5  FSTRM_URALS_NAPHTHA_5    -1  PBAL_GASOLINE_5          1
    FBL_URALS_NAPHTHA_GASOLINE_5  QUAL_GASOLINE_5          46.6
    FBL_URALS_NAPHTHA_JET_5   FSTRM_URALS_NAPHTHA_5    -1  PBAL_JET_5               1
    FBL_URALS_NAPHTHA_JET_5   QUAL_JET_5               -2403.4
    FSLACK_URALS_DIESEL_5     COST                     -180  FSTRM_URALS_DIESEL_5     -1
    FBL_URALS_DIESEL_DIESEL_P_5  FSTRM_URALS_DIESEL_5     -1  PBAL_DIESEL_P_5          1
    FBL_URALS_DIESEL_DIESEL_P_5  QUAL_DIESEL_P_5          2306.5
    FBL_URALS_DIESEL_FUELOIL_5  FSTRM_URALS_DIESEL_5     -1  PBAL_FUELOIL_5           1
    FBL_URALS_DIESEL_FUELOIL_5  QUAL_FUELOIL_5           -32343.5
    BUY_MURBAN_5              COST                     -6980  CBAL_MURBAN_5            1
    INVC_MURBAN_5             COST                     -83.76  CBAL_MURBAN_5            -1
    INVC_MURBAN_5             CBAL_MURBAN_6            1
    CHG_MURBAN_5              COST                     -145  CBAL_MURBAN_5            -1
    CHG_MURBAN_5              CDUCAP_5                 1  STRM_MURBAN_NAPHTHA_5    0.28
    CHG_MURBAN_5              STRM_MURBAN_KERO_5       0.19  STRM_MURBAN_DIESEL_5     0.23
    CHG_MURBAN_5              STRM_MURBAN_VGO_5        0.19  STRM_MURBAN_RESIDUE_5    0.11
    SLACK_MURBAN_NAPHTHA_5    COST                     -180  STRM_MURBAN_NAPHTHA_5    -1
    HDT_MURBAN_NAPHTHA_5      COST                     -240  STRM_MURBAN_NAPHTHA_5    -1
    HDT_MURBAN_NAPHTHA_5      TSTRM_MURBAN_NAPHTHA_5   1  HDTCAP_5                 1
    BL_MURBAN_NAPHTHA_GASOLINE_5  STRM_MURBAN_NAPHTHA_5    -1  PBAL_GASOLINE_5          1
    BL_MURBAN_NAPHTHA_GASOLINE_5  QUAL_GASOLINE_5          98
    BL_MURBAN_NAPHTHA_JET_5   STRM_MURBAN_NAPHTHA_5    -1  PBAL_JET_5               1
    BL_MURBAN_NAPHTHA_JET_5   QUAL_JET_5               -2352
    TSLACK_MURBAN_NAPHTHA_5   COST                     -180  TSTRM_MURBAN_NAPHTHA_5   -1
    TBL_MURBAN_NAPHTHA_GASOLINE_5  TSTRM_MURBAN_NAPHTHA_5   -1  PBAL_GASOLINE_5          1
    TBL_MURBAN_NAPHTHA_GASOLINE_5  QUAL_GASOLINE_5          -44.08
    TBL_MURBAN_NAPHTHA_JET_5  TSTRM_MURBAN_NAPHTHA_5   -1  PBAL_JET_5               1
    TBL_MURBAN_NAPHTHA_JET_5  QUAL_JET_5               -2494.08
    SLACK_MURBAN_KERO_5       COST                     -180  STRM_MURBAN_KERO_5       -1
    HDT_MURBAN_KERO_5         COST                     -240  STRM_MURBAN_KERO_5       -1
    HDT_MURBAN_KERO_5         TSTRM_MURBAN_KERO_5      1  HDTCAP_5                 1
    BL_MURBAN_KERO_GASOLINE_5  STRM_MURBAN_KERO_5       -1  PBAL_GASOLINE_5          1
    BL_MURBAN_KERO_GASOLINE_5  QUAL_GASOLINE_5          1060
    BL_MURBAN_KERO_JET_5      STRM_MURBAN_KERO_5       -1  PBAL_JET_5               1
    BL_MURBAN_KERO_JET_5      QUAL_JET_5               -1390
    BL_MURBAN_KERO_DIESEL_P_5  STRM_MURBAN_KERO_5       -1  PBAL_DIESEL_P_5          1
    BL_MURBAN_KERO_DIESEL_P_5  QUAL_DIESEL_P_5          760
    TSLACK_MURBAN_KERO_5      COST                     -180  TSTRM_MURBAN_KERO_5      -1
    TBL_MURBAN_KERO_GASOLINE_5  TSTRM_MURBAN_KERO_5      -1  PBAL_GASOLINE_5          1
    TBL_MURBAN_KERO_GASOLINE_5  QUAL_GASOLINE_5          -5.6
    TBL_MURBAN_KERO_JET_5     TSTRM_MURBAN_KERO_5      -1  PBAL_JET_5               1
    TBL_MURBAN_KERO_JET_5     QUAL_JET_5               -2455.6
    TBL_MURBAN_KERO_DIESEL_P_5  TSTRM_MURBAN_KERO_5      -1  PBAL_DIESEL_P_5          1
    TBL_MURBAN_KERO_DIESEL_P_5  QUAL_DIESEL_P_5          -305.6
    SLACK_MURBAN_DIESEL_5     COST                     -180  STRM_MURBAN_DIESEL_5     -1
    HDT_MURBAN_DIESEL_5       COST                     -240  STRM_MURBAN_DIESEL_5     -1
    HDT_MURBAN_DIESEL_5       TSTRM_MURBAN_DIESEL_5    1  HDTCAP_5                 1
    BL_MURBAN_DIESEL_DIESEL_P_5  STRM_MURBAN_DIESEL_5     -1  PBAL_DIESEL_P_5          1
    BL_MURBAN_DIESEL_DIESEL_P_5  QUAL_DIESEL_P_5          3720
    BL_MURBAN_DIESEL_FUELOIL_5  STRM_MURBAN_DIESEL_5     -1  PBAL_FUELOIL_5           1
    BL_MURBAN_DIESEL_FUELOIL_5  QUAL_FUELOIL_5           -30930
    TSLACK_MURBAN_DIESEL_5    COST                     -180  TSTRM_MURBAN_DIESEL_5    -1
    TBL_MURBAN_DIESEL_DIESEL_P_5  TSTRM_MURBAN_DIESEL_5    -1  PBAL_DIESEL_P_5          1
    TBL_MURBAN_DIESEL_DIESEL_P_5  QUAL_DIESEL_P_5          -187.2
    TBL_MURBAN_DIESEL_FUELOIL_5  TSTRM_MURBAN_DIESEL_5    -1  PBAL_FUELOIL_5           1
    TBL_MURBAN_DIESEL_FUELOIL_5  QUAL_FUELOIL_5           -34837.2
    SLACK_MURBAN_VGO_5        COST                     -180  STRM_MURBAN_VGO_5        -1
    HDT_MURBAN_VGO_5          COST                     -240  STRM_MURBAN_VGO_5        -1
    HDT_MURBAN_VGO_5          TSTRM_MURBAN_VGO_5       1  HDTCAP_5                 1
    FCC_MURBAN_5              COST                     -310  STRM_MURBAN_VGO_5        -1
    FCC_MURBAN_5              FSTRM_MURBAN_NAPHTHA_5   0.55  FSTRM_MURBAN_DIESEL_5    0.25
    FCC_MURBAN_5              FCCCAP_5                 1
    BL_MURBAN_VGO_DIESEL_P_5  STRM_MURBAN_VGO_5        -1  PBAL_DIESEL_P_5          1
    BL_MURBAN_VGO_DIESEL_P_5  QUAL_DIESEL_P_5          9640
    BL_MURBAN_VGO_FUELOIL_5   STRM_MURBAN_VGO_5        -1  PBAL_FUELOIL_5           1
    BL_MURBAN_VGO_FUELOIL_5   QUAL_FUELOIL_5           -25010
    TSLACK_MURBAN_VGO_5       COST                     -180  TSTRM_MURBAN_VGO_5       -1
    TBL_MURBAN_VGO_DIESEL_P_5  TSTRM_MURBAN_VGO_5       -1  PBAL_DIESEL_P_5          1
    TBL_MURBAN_VGO_DIESEL_P_5  QUAL_DIESEL_P_5          49.6
    TBL_MURBAN_VGO_FUELOIL_5  TSTRM_MURBAN_VGO_5       -1  PBAL_FUELOIL_5           1
    TBL_MURBAN_VGO_FUELOIL_5  QUAL_FUELOIL_5           -34600.4
    SLACK_MURBAN_RESIDUE_5    COST                     -180  STRM_MURBAN_RESIDUE_5    -1
    HDT_MURBAN_RESIDUE_5      COST                     -240  STRM_MURBAN_RESIDUE_5    -1
    HDT_MURBAN_RESIDUE_5      TSTRM_MURBAN_RESIDUE_5   1  HDTCAP_5                 1
    BL_MURBAN_RESIDUE_FUELOIL_5  STRM_MURBAN_RESIDUE_5    -1  PBAL_FUELOIL_5           1
    BL_MURBAN_RESIDUE_FUELOIL_5  QUAL_FUELOIL_5           -15760
    TSLACK_MURBAN_RESIDUE_5   COST                     -180  TSTRM_MURBAN_RESIDUE_5   -1
    TBL_MURBAN_RESIDUE_FUELOIL_5  TSTRM_MURBAN_RESIDUE_5   -1  PBAL_FUELOIL_5           1
    TBL_MURBAN_RESIDUE_FUELOIL_5  QUAL_FUELOIL_5           -34230.4
    FSLACK_MURBAN_NAPHTHA_5   COST                     -180  FSTRM_MURBAN_NAPHTHA_5   -1
    FBL_MURBAN_NAPHTHA_GASOLINE_5  FSTRM_MURBAN_NAPHTHA_5   -1  PBAL_GASOLINE_5          1
    FBL_MURBAN_NAPHTHA_GASOLINE_5  QUAL_GASOLINE_5          1.8
    FBL_MURBAN_NAPHTHA_JET_5  FSTRM_MURBAN_NAPHTHA_5   -1  PBAL_JET_5               1
    FBL_MURBAN_NAPHTHA_JET_5  QUAL_JET_5               -2448.2
    FSLACK_MURBAN_DIESEL_5    COST                     -180  FSTRM_MURBAN_DIESEL_5    -1
    FBL_MURBAN_DIESEL_DIESEL_P_5  FSTRM_MURBAN_DIESEL_5    -1  PBAL_DIESEL_P_5          1
    FBL_MURBAN_DIESEL_DIESEL_P_5  QUAL_DIESEL_P_5          1074.5
    FBL_MURBAN_DIESEL_FUELOIL_5  FSTRM_MURBAN_DIESEL_5    -1  PBAL_FUELOIL_5           1
    FBL_MURBAN_DIESEL_FUELOIL_5  QUAL_FUELOIL_5           -33575.5
    BUY_ES_SIDER_5            COST                     -6540  CBAL_ES_SIDER_5          1
    INVC_ES_SIDER_5           COST                     -78.48  CBAL_ES_SIDER_5          -1
    INVC_ES_SIDER_5           CBAL_ES_SIDER_6          1
    CHG_ES_SIDER_5            COST                     -145  CBAL_ES_SIDER_5          -1
    CHG_ES_SIDER_5            CDUCAP_5                 1  STRM_ES_SIDER_NAPHTHA_5  0.25
    CHG_ES_SIDER_5            STRM_ES_SIDER_KERO_5     0.18  STRM_ES_SIDER_DIESEL_5   0.25
    CHG_ES_SIDER_5            STRM_ES_SIDER_VGO_5      0.2  STRM_ES_SIDER_RESIDUE_5  0.12
    SLACK_ES_SIDER_NAPHTHA_5  COST                     -180  STRM_ES_SIDER_NAPHTHA_5  -1
    HDT_ES_SIDER_NAPHTHA_5    COST                     -240  STRM_ES_SIDER_NAPHTHA_5  -1
    HDT_ES_SIDER_NAPHTHA_5    TSTRM_ES_SIDER_NAPHTHA_5 1  HDTCAP_5                 1
    BL_ES_SIDER_NAPHTHA_GASOLINE_5  STRM_ES_SIDER_NAPHTHA_5  -1  PBAL_GASOLINE_5          1
    BL_ES_SIDER_NAPHTHA_GASOLINE_5  QUAL_GASOLINE_5          32
    BL_ES_SIDER_NAPHTHA_JET_5  STRM_ES_SIDER_NAPHTHA_5  -1  PBAL_JET_5               1
    BL_ES_SIDER_NAPHTHA_JET_5  QUAL_JET_5               -2418
    TSLACK_ES_SIDER_NAPHTHA_5  COST                     -180  TSTRM_ES_SIDER_NAPHTHA_5 -1
    TBL_ES_SIDER_NAPHTHA_GASOLINE_5  TSTRM_ES_SIDER_NAPHTHA_5 -1  PBAL_GASOLINE_5          1
    TBL_ES_SIDER_NAPHTHA_GASOLINE_5  QUAL_GASOLINE_5          -46.72
    TBL_ES_SIDER_NAPHTHA_JET_5  TSTRM_ES_SIDER_NAPHTHA_5 -1  PBAL_JET_5               1
    TBL_ES_SIDER_NAPHTHA_JET_5  QUAL_JET_5               -2496.72
    SLACK_ES_SIDER_KERO_5     COST                     -180  STRM_ES_SIDER_KERO_5     -1
    HDT_ES_SIDER_KERO_5       COST                     -240  STRM_ES_SIDER_KERO_5     -1
    HDT_ES_SIDER_KERO_5       TSTRM_ES_SIDER_KERO_5    1  HDTCAP_5                 1
    BL_ES_SIDER_KERO_GASOLINE_5  STRM_ES_SIDER_KERO_5     -1  PBAL_GASOLINE_5          1
    BL_ES_SIDER_KERO_GASOLINE_5  QUAL_GASOLINE_5          565
    BL_ES_SIDER_KERO_JET_5    STRM_ES_SIDER_KERO_5     -1  PBAL_JET_5               1
    BL_ES_SIDER_KERO_JET_5    QUAL_JET_5               -1885
    BL_ES_SIDER_KERO_DIESEL_P_5  STRM_ES_SIDER_KERO_5     -1  PBAL_DIESEL_P_5          1
    BL_ES_SIDER_KERO_DIESEL_P_5  QUAL_DIESEL_P_5          265
    TSLACK_ES_SIDER_KERO_5    COST                     -180  TSTRM_ES_SIDER_KERO_5    -1
    TBL_ES_SIDER_KERO_GASOLINE_5  TSTRM_ES_SIDER_KERO_5    -1  PBAL_GASOLINE_5          1
    TBL_ES_SIDER_KERO_GASOLINE_5  QUAL_GASOLINE_5          -25.4
    TBL_ES_SIDER_KERO_JET_5   TSTRM_ES_SIDER_KERO_5    -1  PBAL_JET_5               1
    TBL_ES_SIDER_KERO_JET_5   QUAL_JET_5               -2475.4
    TBL_ES_SIDER_KERO_DIESEL_P_5  TSTRM_ES_SIDER_KERO_5    -1  PBAL_DIESEL_P_5          1
    TBL_ES_SIDER_KERO_DIESEL_P_5  QUAL_DIESEL_P_5          -325.4
    SLACK_ES_SIDER_DIESEL_5   COST                     -180  STRM_ES_SIDER_DIESEL_5   -1
    HDT_ES_SIDER_DIESEL_5     COST                     -240  STRM_ES_SIDER_DIESEL_5   -1
    HDT_ES_SIDER_DIESEL_5     TSTRM_ES_SIDER_DIESEL_5  1  HDTCAP_5                 1
    BL_ES_SIDER_DIESEL_DIESEL_P_5  STRM_ES_SIDER_DIESEL_5   -1  PBAL_DIESEL_P_5          1
    BL_ES_SIDER_DIESEL_DIESEL_P_5  QUAL_DIESEL_P_5          1905
    BL_ES_SIDER_DIESEL_FUELOIL_5  STRM_ES_SIDER_DIESEL_5   -1  PBAL_FUELOIL_5           1
    BL_ES_SIDER_DIESEL_FUELOIL_5  QUAL_FUELOIL_5           -32745
    TSLACK_ES_SIDER_DIESEL_5  COST                     -180  TSTRM_ES_SIDER_DIESEL_5  -1
    TBL_ES_SIDER_DIESEL_DIESEL_P_5  TSTRM_ES_SIDER_DIESEL_5  -1  PBAL_DIESEL_P_5          1
    TBL_ES_SIDER_DIESEL_DIESEL_P_5  QUAL_DIESEL_P_5          -259.8
    TBL_ES_SIDER_DIESEL_FUELOIL_5  TSTRM_ES_SIDER_DIESEL_5  -1  PBAL_FUELOIL_5           1
    TBL_ES_SIDER_DIESEL_FUELOIL_5  QUAL_FUELOIL_5           -34909.8
    SLACK_ES_SIDER_VGO_5      COST                     -180  STRM_ES_SIDER_VGO_5      -1
    HDT_ES_SIDER_VGO_5        COST                     -240  STRM_ES_SIDER_VGO_5      -1
    HDT_ES_SIDER_VGO_5        TSTRM_ES_SIDER_VGO_5     1  HDTCAP_5                 1
    FCC_ES_SIDER_5            COST                     -310  STRM_ES_SIDER_VGO_5      -1
    FCC_ES_SIDER_5            FSTRM_ES_SIDER_NAPHTHA_5 0.55  FSTRM_ES_SIDER_DIESEL_5  0.25
    FCC_ES_SIDER_5            FCCCAP_5                 1
    BL_ES_SIDER_VGO_DIESEL_P_5  STRM_ES_SIDER_VGO_5      -1  PBAL_DIESEL_P_5          1
    BL_ES_SIDER_VGO_DIESEL_P_5  QUAL_DIESEL_P_5          5185
    BL_ES_SIDER_VGO_FUELOIL_5  STRM_ES_SIDER_VGO_5      -1  PBAL_FUELOIL_5           1
    BL_ES_SIDER_VGO_FUELOIL_5  QUAL_FUELOIL_5           -29465
    TSLACK_ES_SIDER_VGO_5     COST                     -180  TSTRM_ES_SIDER_VGO_5     -1
    TBL_ES_SIDER_VGO_DIESEL_P_5  TSTRM_ES_SIDER_VGO_5     -1  PBAL_DIESEL_P_5          1
    TBL_ES_SIDER_VGO_DIESEL_P_5  QUAL_DIESEL_P_5          -128.6
    TBL_ES_SIDER_VGO_FUELOIL_5  TSTRM_ES_SIDER_VGO_5     -1  PBAL_FUELOIL_5           1
    TBL_ES_SIDER_VGO_FUELOIL_5  QUAL_FUELOIL_5           -34778.6
    SLACK_ES_SIDER_RESIDUE_5  COST                     -180  STRM_ES_SIDER_RESIDUE_5  -1
    HDT_ES_SIDER_RESIDUE_5    COST                     -240  STRM_ES_SIDER_RESIDUE_5  -1
    HDT_ES_SIDER_RESIDUE_5    TSTRM_ES_SIDER_RESIDUE_5 1  HDTCAP_5                 1
    BL_ES_SIDER_RESIDUE_FUELOIL_5  STRM_ES_SIDER_RESIDUE_5  -1  PBAL_FUELOIL_5           1
    BL_ES_SIDER_RESIDUE_FUELOIL_5  QUAL_FUELOIL_5           -24340
    TSLACK_ES_SIDER_RESIDUE_5  COST                     -180  TSTRM_ES_SIDER_RESIDUE_5 -1
    TBL_ES_SIDER_RESIDUE_FUELOIL_5  TSTRM_ES_SIDER_RESIDUE_5 -1  PBAL_FUELOIL_5           1
    TBL_ES_SIDER_RESIDUE_FUELOIL_5  QUAL_FUELOIL_5           -34573.6
    FSLACK_ES_SIDER_NAPHTHA_5  COST                     -180  FSTRM_ES_SIDER_NAPHTHA_5 -1
    FBL_ES_SIDER_NAPHTHA_GASOLINE_5  FSTRM_ES_SIDER_NAPHTHA_5 -1  PBAL_GASOLINE_5          1
    FBL_ES_SIDER_NAPHTHA_GASOLINE_5  QUAL_GASOLINE_5          -21.3
    FBL_ES_SIDER_NAPHTHA_JET_5  FSTRM_ES_SIDER_NAPHTHA_5 -1  PBAL_JET_5               1
    FBL_ES_SIDER_NAPHTHA_JET_5  QUAL_JET_5               -2471.3
    FSLACK_ES_SIDER_DIESEL_5  COST                     -180  FSTRM_ES_SIDER_DIESEL_5  -1
    FBL_ES_SIDER_DIESEL_DIESEL_P_5  FSTRM_ES_SIDER_DIESEL_5  -1  PBAL_DIESEL_P_5          1
    FBL_ES_SIDER_DIESEL_DIESEL_P_5  QUAL_DIESEL_P_5          439.25
    FBL_ES_SIDER_DIESEL_FUELOIL_5  FSTRM_ES_SIDER_DIESEL_5  -1  PBAL_FUELOIL_5           1
    FBL_ES_SIDER_DIESEL_FUELOIL_5  QUAL_FUELOIL_5           -34210.75
    BUY_QUA_IBOE_5            COST                     -6890  CBAL_QUA_IBOE_5          1
    INVC_QUA_IBOE_5           COST                     -82.68  CBAL_QUA_IBOE_5          -1
    INVC_QUA_IBOE_5           CBAL_QUA_IBOE_6          1
    CHG_QUA_IBOE_5            COST                     -145  CBAL_QUA_IBOE_5          -1
    CHG_QUA_IBOE_5            CDUCAP_5                 1  STRM_QUA_IBOE_NAPHTHA_5  0.27
    CHG_QUA_IBOE_5            STRM_QUA_IBOE_KERO_5     0.2  STRM_QUA_IBOE_DIESEL_5   0.25
    CHG_QUA_IBOE_5            STRM_QUA_IBOE_VGO_5      0.18  STRM_QUA_IBOE_RESIDUE_5  0.1
    SLACK_QUA_IBOE_NAPHTHA_5  COST                     -180  STRM_QUA_IBOE_NAPHTHA_5  -1
    HDT_QUA_IBOE_NAPHTHA_5    COST                     -240  STRM_QUA_IBOE_NAPHTHA_5  -1
    HDT_QUA_IBOE_NAPHTHA_5    TSTRM_QUA_IBOE_NAPHTHA_5 1  HDTCAP_5                 1
    BL_QUA_IBOE_NAPHTHA_GASOLINE_5  STRM_QUA_IBOE_NAPHTHA_5  -1  PBAL_GASOLINE_5          1
    BL_QUA_IBOE_NAPHTHA_GASOLINE_5  QUAL_GASOLINE_5          -24
    BL_QUA_IBOE_NAPHTHA_JET_5  STRM_QUA_IBOE_NAPHTHA_5  -1  PBAL_JET_5               1
    BL_QUA_IBOE_NAPHTHA_JET_5  QUAL_JET_5               -2474
    TSLACK_QUA_IBOE_NAPHTHA_5  COST                     -180  TSTRM_QUA_IBOE_NAPHTHA_5 -1
    TBL_QUA_IBOE_NAPHTHA_GASOLINE_5  TSTRM_QUA_IBOE_NAPHTHA_5 -1  PBAL_GASOLINE_5          1
    TBL_QUA_IBOE_NAPHTHA_GASOLINE_5  QUAL_GASOLINE_5          -48.96
    TBL_QUA_IBOE_NAPHTHA_JET_5  TSTRM_QUA_IBOE_NAPHTHA_5 -1  PBAL_JET_5               1
    TBL_QUA_IBOE_NAPHTHA_JET_5  QUAL_JET_5               -2498.96
    SLACK_QUA_IBOE_KERO_5     COST                     -180  STRM_QUA_IBOE_KERO_5     -1
    HDT_QUA_IBOE_KERO_5       COST                     -240  STRM_QUA_IBOE_KERO_5     -1
    HDT_QUA_IBOE_KERO_5       TSTRM_QUA_IBOE_KERO_5    1  HDTCAP_5                 1
    BL_QUA_IBOE_KERO_GASOLINE_5  STRM_QUA_IBOE_KERO_5     -1  PBAL_GASOLINE_5          1
    BL_QUA_IBOE_KERO_GASOLINE_5  QUAL_GASOLINE_5          145
    BL_QUA_IBOE_KERO_JET_5    STRM_QUA_IBOE_KERO_5     -1  PBAL_JET_5               1
    BL_QUA_IBOE_KERO_JET_5    QUAL_JET_5               -2305
    BL_QUA_IBOE_KERO_DIESEL_P_5  STRM_QUA_IBOE_KERO_5     -1  PBAL_DIESEL_P_5          1
    BL_QUA_IBOE_KERO_DIESEL_P_5  QUAL_DIESEL_P_5          -155
    TSLACK_QUA_IBOE_KERO_5    COST                     -180  TSTRM_QUA_IBOE_KERO_5    -1
    TBL_QUA_IBOE_KERO_GASOLINE_5  TSTRM_QUA_IBOE_KERO_5    -1  PBAL_GASOLINE_5          1
    TBL_QUA_IBOE_KERO_GASOLINE_5  QUAL_GASOLINE_5          -42.2
    TBL_QUA_IBOE_KERO_JET_5   TSTRM_QUA_IBOE_KERO_5    -1  PBAL_JET_5               1
    TBL_QUA_IBOE_KERO_JET_5   QUAL_JET_5               -2492.2
    TBL_QUA_IBOE_KERO_DIESEL_P_5  TSTRM_QUA_IBOE_KERO_5    -1  PBAL_DIESEL_P_5          1
    TBL_QUA_IBOE_KERO_DIESEL_P_5  QUAL_DIESEL_P_5          -342.2
    SLACK_QUA_IBOE_DIESEL_5   COST                     -180  STRM_QUA_IBOE_DIESEL_5   -1
    HDT_QUA_IBOE_DIESEL_5     COST                     -240  STRM_QUA_IBOE_DIESEL_5   -1
    HDT_QUA_IBOE_DIESEL_5     TSTRM_QUA_IBOE_DIESEL_5  1  HDTCAP_5                 1
    BL_QUA_IBOE_DIESEL_DIESEL_P_5  STRM_QUA_IBOE_DIESEL_5   -1  PBAL_DIESEL_P_5          1
    BL_QUA_IBOE_DIESEL_DIESEL_P_5  QUAL_DIESEL_P_5          365
    BL_QUA_IBOE_DIESEL_FUELOIL_5  STRM_QUA_IBOE_DIESEL_5   -1  PBAL_FUELOIL_5           1
    BL_QUA_IBOE_DIESEL_FUELOIL_5  QUAL_FUELOIL_5           -34285
    TSLACK_QUA_IBOE_DIESEL_5  COST                     -180  TSTRM_QUA_IBOE_DIESEL_5  -1
    TBL_QUA_IBOE_DIESEL_DIESEL_P_5  TSTRM_QUA_IBOE_DIESEL_5  -1  PBAL_DIESEL_P_5          1
    TBL_QUA_IBOE_DIESEL_DIESEL_P_5  QUAL_DIESEL_P_5          -321.4
    TBL_QUA_IBOE_DIESEL_FUELOIL_5  TSTRM_QUA_IBOE_DIESEL_5  -1  PBAL_FUELOIL_5           1
    TBL_QUA_IBOE_DIESEL_FUELOIL_5  QUAL_FUELOIL_5           -34971.4
    SLACK_QUA_IBOE_VGO_5      COST                     -180  STRM_QUA_IBOE_VGO_5      -1
    HDT_QUA_IBOE_VGO_5        COST                     -240  STRM_QUA_IBOE_VGO_5      -1
    HDT_QUA_IBOE_VGO_5        TSTRM_QUA_IBOE_VGO_5     1  HDTCAP_5                 1
    FCC_QUA_IBOE_5            COST                     -310  STRM_QUA_IBOE_VGO_5      -1
    FCC_QUA_IBOE_5            FSTRM_QUA_IBOE_NAPHTHA_5 0.55  FSTRM_QUA_IBOE_DIESEL_5  0.25
    FCC_QUA_IBOE_5            FCCCAP_5                 1
    BL_QUA_IBOE_VGO_DIESEL_P_5  STRM_QUA_IBOE_VGO_5      -1  PBAL_DIESEL_P_5          1
    BL_QUA_IBOE_VGO_DIESEL_P_5  QUAL_DIESEL_P_5          1405
    BL_QUA_IBOE_VGO_FUELOIL_5  STRM_QUA_IBOE_VGO_5      -1  PBAL_FUELOIL_5           1
    BL_QUA_IBOE_VGO_FUELOIL_5  QUAL_FUELOIL_5           -33245
    TSLACK_QUA_IBOE_VGO_5     COST                     -180  TSTRM_QUA_IBOE_VGO_5     -1
    TBL_QUA_IBOE_VGO_DIESEL_P_5  TSTRM_QUA_IBOE_VGO_5     -1  PBAL_DIESEL_P_5          1
    TBL_QUA_IBOE_VGO_DIESEL_P_5  QUAL_DIESEL_P_5          -279.8
    TBL_QUA_IBOE_VGO_FUELOIL_5  TSTRM_QUA_IBOE_VGO_5     -1  PBAL_FUELOIL_5           1
    TBL_QUA_IBOE_VGO_FUELOIL_5  QUAL_FUELOIL_5           -34929.8
    SLACK_QUA_IBOE_RESIDUE_5  COST                     -180  STRM_QUA_IBOE_RESIDUE_5  -1
    HDT_QUA_IBOE_RESIDUE_5    COST                     -240  STRM_QUA_IBOE_RESIDUE_5  -1
    HDT_QUA_IBOE_RESIDUE_5    TSTRM_QUA_IBOE_RESIDUE_5 1  HDTCAP_5                 1
    BL_QUA_IBOE_RESIDUE_FUELOIL_5  STRM_QUA_IBOE_RESIDUE_5  -1  PBAL_FUELOIL_5           1
    BL_QUA_IBOE_RESIDUE_FUELOIL_5  QUAL_FUELOIL_5           -31620
    TSLACK_QUA_IBOE_RESIDUE_5  COST                     -180  TSTRM_QUA_IBOE_RESIDUE_5 -1
    TBL_QUA_IBOE_RESIDUE_FUELOIL_5  TSTRM_QUA_IBOE_RESIDUE_5 -1  PBAL_FUELOIL_5           1
    TBL_QUA_IBOE_RESIDUE_FUELOIL_5  QUAL_FUELOIL_5           -34864.8
    FSLACK_QUA_IBOE_NAPHTHA_5  COST                     -180  FSTRM_QUA_IBOE_NAPHTHA_5 -1
    FBL_QUA_IBOE_NAPHTHA_GASOLINE_5  FSTRM_QUA_IBOE_NAPHTHA_5 -1  PBAL_GASOLINE_5          1
    FBL_QUA_IBOE_NAPHTHA_GASOLINE_5  QUAL_GASOLINE_5          -40.9
    FBL_QUA_IBOE_NAPHTHA_JET_5  FSTRM_QUA_IBOE_NAPHTHA_5 -1  PBAL_JET_5               1
    FBL_QUA_IBOE_NAPHTHA_JET_5  QUAL_JET_5               -2490.9
    FSLACK_QUA_IBOE_DIESEL_5  COST                     -180  FSTRM_QUA_IBOE_DIESEL_5  -1
    FBL_QUA_IBOE_DIESEL_DIESEL_P_5  FSTRM_QUA_IBOE_DIESEL_5  -1  PBAL_DIESEL_P_5          1
    FBL_QUA_IBOE_DIESEL_DIESEL_P_5  QUAL_DIESEL_P_5          -99.75
    FBL_QUA_IBOE_DIESEL_FUELOIL_5  FSTRM_QUA_IBOE_DIESEL_5  -1  PBAL_FUELOIL_5           1
    FBL_QUA_IBOE_DIESEL_FUELOIL_5  QUAL_FUELOIL_5           -34749.75
    SELL_GASOLINE_5           COST                     9250  PBAL_GASOLINE_5          -1
    SELL_JET_5                COST                     8900  PBAL_JET_5               -1
    SELL_DIESEL_P_5           COST                     8600  PBAL_DIESEL_P_5          -1
    SELL_FUELOIL_5            COST                     4900  PBAL_FUELOIL_5           -1
    BUY_BOMBAY_HIGH_6         COST                     -6850  CBAL_BOMBAY_HIGH_6       1
    INVC_BOMBAY_HIGH_6        COST                     -82.2  CBAL_BOMBAY_HIGH_6       -1
    INVC_BOMBAY_HIGH_6        CBAL_BOMBAY_HIGH_7       1
    CHG_BOMBAY_HIGH_6         COST                     -145  CBAL_BOMBAY_HIGH_6       -1
    CHG_BOMBAY_HIGH_6         CDUCAP_6                 1  STRM_BOMBAY_HIGH_NAPHTHA_6 0.26
    CHG_BOMBAY_HIGH_6         STRM_BOMBAY_HIGH_KERO_6  0.18  STRM_BOMBAY_HIGH_DIESEL_6 0.24
    CHG_BOMBAY_HIGH_6         STRM_BOMBAY_HIGH_VGO_6   0.2  STRM_BOMBAY_HIGH_RESIDUE_6 0.12
    SLACK_BOMBAY_HIGH_NAPHTHA_6  COST                     -180  STRM_BOMBAY_HIGH_NAPHTHA_6 -1
    HDT_BOMBAY_HIGH_NAPHTHA_6  COST                     -240  STRM_BOMBAY_HIGH_NAPHTHA_6 -1
    HDT_BOMBAY_HIGH_NAPHTHA_6  TSTRM_BOMBAY_HIGH_NAPHTHA_6 1  HDTCAP_6                 1
    BL_BOMBAY_HIGH_NAPHTHA_GASOLINE_6  STRM_BOMBAY_HIGH_NAPHTHA_6 -1  PBAL_GASOLINE_6          1
    BL_BOMBAY_HIGH_NAPHTHA_GASOLINE_6  QUAL_GASOLINE_6          -32
    BL_BOMBAY_HIGH_NAPHTHA_JET_6  STRM_BOMBAY_HIGH_NAPHTHA_6 -1  PBAL_JET_6               1
    BL_BOMBAY_HIGH_NAPHTHA_JET_6  QUAL_JET_6               -2482
    TSLACK_BOMBAY_HIGH_NAPHTHA_6  COST                     -180  TSTRM_BOMBAY_HIGH_NAPHTHA_6 -1
    TBL_BOMBAY_HIGH_NAPHTHA_GASOLINE_6  TSTRM_BOMBAY_HIGH_NAPHTHA_6 -1  PBAL_GASOLINE_6          1
    TBL_BOMBAY_HIGH_NAPHTHA_GASOLINE_6  QUAL_GASOLINE_6          -49.28
    TBL_BOMBAY_HIGH_NAPHTHA_JET_6  TSTRM_BOMBAY_HIGH_NAPHTHA_6 -1  PBAL_JET_6               1
    TBL_BOMBAY_HIGH_NAPHTHA_JET_6  QUAL_JET_6               -2499.28
    SLACK_BOMBAY_HIGH_KERO_6  COST                     -180  STRM_BOMBAY_HIGH_KERO_6  -1
    HDT_BOMBAY_HIGH_KERO_6    COST                     -240  STRM_BOMBAY_HIGH_KERO_6  -1
    HDT_BOMBAY_HIGH_KERO_6    TSTRM_BOMBAY_HIGH_KERO_6 1  HDTCAP_6                 1
    BL_BOMBAY_HIGH_KERO_GASOLINE_6  STRM_BOMBAY_HIGH_KERO_6  -1  PBAL_GASOLINE_6          1
    BL_BOMBAY_HIGH_KERO_GASOLINE_6  QUAL_GASOLINE_6          85
    BL_BOMBAY_HIGH_KERO_JET_6  STRM_BOMBAY_HIGH_KERO_6  -1  PBAL_JET_6               1
    BL_BOMBAY_HIGH_KERO_JET_6  QUAL_JET_6               -2365
    BL_BOMBAY_HIGH_KERO_DIESEL_P_6  STRM_BOMBAY_HIGH_KERO_6  -1  PBAL_DIESEL_P_6          1
    BL_BOMBAY_HIGH_KERO_DIESEL_P_6  QUAL_DIESEL_P_6          -215
    TSLACK_BOMBAY_HIGH_KERO_6  COST                     -180  TSTRM_BOMBAY_HIGH_KERO_6 -1
    TBL_BOMBAY_HIGH_KERO_GASOLINE_6  TSTRM_BOMBAY_HIGH_KERO_6 -1  PBAL_GASOLINE_6          1
    TBL_BOMBAY_HIGH_KERO_GASOLINE_6  QUAL_GASOLINE_6          -44.6
    TBL_BOMBAY_HIGH_KERO_JET_6  TSTRM_BOMBAY_HIGH_KERO_6 -1  PBAL_JET_6               1
    TBL_BOMBAY_HIGH_KERO_JET_6  QUAL_JET_6               -2494.6
    TBL_BOMBAY_HIGH_KERO_DIESEL_P_6  TSTRM_BOMBAY_HIGH_KERO_6 -1  PBAL_DIESEL_P_6          1
    TBL_BOMBAY_HIGH_KERO_DIESEL_P_6  QUAL_DIESEL_P_6          -344.6
    SLACK_BOMBAY_HIGH_DIESEL_6  COST                     -180  STRM_BOMBAY_HIGH_DIESEL_6 -1
    HDT_BOMBAY_HIGH_DIESEL_6  COST                     -240  STRM_BOMBAY_HIGH_DIESEL_6 -1
    HDT_BOMBAY_HIGH_DIESEL_6  TSTRM_BOMBAY_HIGH_DIESEL_6 1  HDTCAP_6                 1
    BL_BOMBAY_HIGH_DIESEL_DIESEL_P_6  STRM_BOMBAY_HIGH_DIESEL_6 -1  PBAL_DIESEL_P_6          1
    BL_BOMBAY_HIGH_DIESEL_DIESEL_P_6  QUAL_DIESEL_P_6          145
    BL_BOMBAY_HIGH_DIESEL_FUELOIL_6  STRM_BOMBAY_HIGH_DIESEL_6 -1  PBAL_FUELOIL_6           1
    BL_BOMBAY_HIGH_DIESEL_FUELOIL_6  QUAL_FUELOIL_6           -34505
    TSLACK_BOMBAY_HIGH_DIESEL_6  COST                     -180  TSTRM_BOMBAY_HIGH_DIESEL_6 -1
    TBL_BOMBAY_HIGH_DIESEL_DIESEL_P_6  TSTRM_BOMBAY_HIGH_DIESEL_6 -1  PBAL_DIESEL_P_6          1
    TBL_BOMBAY_HIGH_DIESEL_DIESEL_P_6  QUAL_DIESEL_P_6          -330.2
    TBL_BOMBAY_HIGH_DIESEL_FUELOIL_6  TSTRM_BOMBAY_HIGH_DIESEL_6 -1  PBAL_FUELOIL_6           1
    TBL_BOMBAY_HIGH_DIESEL_FUELOIL_6  QUAL_FUELOIL_6           -34980.2
    SLACK_BOMBAY_HIGH_VGO_6   COST                     -180  STRM_BOMBAY_HIGH_VGO_6   -1
    HDT_BOMBAY_HIGH_VGO_6     COST                     -240  STRM_BOMBAY_HIGH_VGO_6   -1
    HDT_BOMBAY_HIGH_VGO_6     TSTRM_BOMBAY_HIGH_VGO_6  1  HDTCAP_6                 1
    FCC_BOMBAY_HIGH_6         COST                     -310  STRM_BOMBAY_HIGH_VGO_6   -1
    FCC_BOMBAY_HIGH_6         FSTRM_BOMBAY_HIGH_NAPHTHA_6 0.55  FSTRM_BOMBAY_HIGH_DIESEL_6 0.25
    FCC_BOMBAY_HIGH_6         FCCCAP_6                 1
    BL_BOMBAY_HIGH_VGO_DIESEL_P_6  STRM_BOMBAY_HIGH_VGO_6   -1  PBAL_DIESEL_P_6          1
    BL_BOMBAY_HIGH_VGO_DIESEL_P_6  QUAL_DIESEL_P_6          865
    BL_BOMBAY_HIGH_VGO_FUELOIL_6  STRM_BOMBAY_HIGH_VGO_6   -1  PBAL_FUELOIL_6           1
    BL_BOMBAY_HIGH_VGO_FUELOIL_6  QUAL_FUELOIL_6           -33785
    TSLACK_BOMBAY_HIGH_VGO_6  COST                     -180  TSTRM_BOMBAY_HIGH_VGO_6  -1
    TBL_BOMBAY_HIGH_VGO_DIESEL_P_6  TSTRM_BOMBAY_HIGH_VGO_6  -1  PBAL_DIESEL_P_6          1
    TBL_BOMBAY_HIGH_VGO_DIESEL_P_6  QUAL_DIESEL_P_6          -301.4
    TBL_BOMBAY_HIGH_VGO_FUELOIL_6  TSTRM_BOMBAY_HIGH_VGO_6  -1  PBAL_FUELOIL_6           1
    TBL_BOMBAY_HIGH_VGO_FUELOIL_6  QUAL_FUELOIL_6           -34951.4
    SLACK_BOMBAY_HIGH_RESIDUE_6  COST                     -180  STRM_BOMBAY_HIGH_RESIDUE_6 -1
    HDT_BOMBAY_HIGH_RESIDUE_6  COST                     -240  STRM_BOMBAY_HIGH_RESIDUE_6 -1
    HDT_BOMBAY_HIGH_RESIDUE_6  TSTRM_BOMBAY_HIGH_RESIDUE_6 1  HDTCAP_6                 1
    BL_BOMBAY_HIGH_RESIDUE_FUELOIL_6  STRM_BOMBAY_HIGH_RESIDUE_6 -1  PBAL_FUELOIL_6           1
    BL_BOMBAY_HIGH_RESIDUE_FUELOIL_6  QUAL_FUELOIL_6           -32660
    TSLACK_BOMBAY_HIGH_RESIDUE_6  COST                     -180  TSTRM_BOMBAY_HIGH_RESIDUE_6 -1
    TBL_BOMBAY_HIGH_RESIDUE_FUELOIL_6  TSTRM_BOMBAY_HIGH_RESIDUE_6 -1  PBAL_FUELOIL_6           1
    TBL_BOMBAY_HIGH_RESIDUE_FUELOIL_6  QUAL_FUELOIL_6           -34906.4
    FSLACK_BOMBAY_HIGH_NAPHTHA_6  COST                     -180  FSTRM_BOMBAY_HIGH_NAPHTHA_6 -1
    FBL_BOMBAY_HIGH_NAPHTHA_GASOLINE_6  FSTRM_BOMBAY_HIGH_NAPHTHA_6 -1  PBAL_GASOLINE_6          1
    FBL_BOMBAY_HIGH_NAPHTHA_GASOLINE_6  QUAL_GASOLINE_6          -43.7
    FBL_BOMBAY_HIGH_NAPHTHA_JET_6  FSTRM_BOMBAY_HIGH_NAPHTHA_6 -1  PBAL_JET_6               1
    FBL_BOMBAY_HIGH_NAPHTHA_JET_6  QUAL_JET_6               -2493.7
    FSLACK_BOMBAY_HIGH_DIESEL_6  COST                     -180  FSTRM_BOMBAY_HIGH_DIESEL_6 -1
    FBL_BOMBAY_HIGH_DIESEL_DIESEL_P_6  FSTRM_BOMBAY_HIGH_DIESEL_6 -1  PBAL_DIESEL_P_6          1
    FBL_BOMBAY_HIGH_DIESEL_DIESEL_P_6  QUAL_DIESEL_P_6          -176.75
    FBL_BOMBAY_HIGH_DIESEL_FUELOIL_6  FSTRM_BOMBAY_HIGH_DIESEL_6 -1  PBAL_FUELOIL_6           1
    FBL_BOMBAY_HIGH_DIESEL_FUELOIL_6  QUAL_FUELOIL_6           -34826.75
    BUY_ARAB_LIGHT_6          COST                     -6420  CBAL_ARAB_LIGHT_6        1
    INVC_ARAB_LIGHT_6         COST                     -77.04  CBAL_ARAB_LIGHT_6        -1
    INVC_ARAB_LIGHT_6         CBAL_ARAB_LIGHT_7        1
    CHG_ARAB_LIGHT_6          COST                     -145  CBAL_ARAB_LIGHT_6        -1
    CHG_ARAB_LIGHT_6          CDUCAP_6                 1  STRM_ARAB_LIGHT_NAPHTHA_6 0.22
    CHG_ARAB_LIGHT_6          STRM_ARAB_LIGHT_KERO_6   0.17  STRM_ARAB_LIGHT_DIESEL_6 0.23
    CHG_ARAB_LIGHT_6          STRM_ARAB_LIGHT_VGO_6    0.22  STRM_ARAB_LIGHT_RESIDUE_6 0.16
    SLACK_ARAB_LIGHT_NAPHTHA_6  COST                     -180  STRM_ARAB_LIGHT_NAPHTHA_6 -1
    HDT_ARAB_LIGHT_NAPHTHA_6  COST                     -240  STRM_ARAB_LIGHT_NAPHTHA_6 -1
    HDT_ARAB_LIGHT_NAPHTHA_6  TSTRM_ARAB_LIGHT_NAPHTHA_6 1  HDTCAP_6                 1
    BL_ARAB_LIGHT_NAPHTHA_GASOLINE_6  STRM_ARAB_LIGHT_NAPHTHA_6 -1  PBAL_GASOLINE_6          1
    BL_ARAB_LIGHT_NAPHTHA_GASOLINE_6  QUAL_GASOLINE_6          330
    BL_ARAB_LIGHT_NAPHTHA_JET_6  STRM_ARAB_LIGHT_NAPHTHA_6 -1  PBAL_JET_6               1
    BL_ARAB_LIGHT_NAPHTHA_JET_6  QUAL_JET_6               -2120
    TSLACK_ARAB_LIGHT_NAPHTHA_6  COST                     -180  TSTRM_ARAB_LIGHT_NAPHTHA_6 -1
    TBL_ARAB_LIGHT_NAPHTHA_GASOLINE_6  TSTRM_ARAB_LIGHT_NAPHTHA_6 -1  PBAL_GASOLINE_6          1
    TBL_ARAB_LIGHT_NAPHTHA_GASOLINE_6  QUAL_GASOLINE_6          -34.8
    TBL_ARAB_LIGHT_NAPHTHA_JET_6  TSTRM_ARAB_LIGHT_NAPHTHA_6 -1  PBAL_JET_6               1
    TBL_ARAB_LIGHT_NAPHTHA_JET_6  QUAL_JET_6               -2484.8
    SLACK_ARAB_LIGHT_KERO_6   COST                     -180  STRM_ARAB_LIGHT_KERO_6   -1
    HDT_ARAB_LIGHT_KERO_6     COST                     -240  STRM_ARAB_LIGHT_KERO_6   -1
    HDT_ARAB_LIGHT_KERO_6     TSTRM_ARAB_LIGHT_KERO_6  1  HDTCAP_6                 1
    BL_ARAB_LIGHT_KERO_GASOLINE_6  STRM_ARAB_LIGHT_KERO_6   -1  PBAL_GASOLINE_6          1
    BL_ARAB_LIGHT_KERO_GASOLINE_6  QUAL_GASOLINE_6          2800
    BL_ARAB_LIGHT_KERO_JET_6  STRM_ARAB_LIGHT_KERO_6   -1  PBAL_JET_6               1
    BL_ARAB_LIGHT_KERO_JET_6  QUAL_JET_6               350
    BL_ARAB_LIGHT_KERO_DIESEL_P_6  STRM_ARAB_LIGHT_KERO_6   -1  PBAL_DIESEL_P_6          1
    BL_ARAB_LIGHT_KERO_DIESEL_P_6  QUAL_DIESEL_P_6          2500
    TSLACK_ARAB_LIGHT_KERO_6  COST                     -180  TSTRM_ARAB_LIGHT_KERO_6  -1
    TBL_ARAB_LIGHT_KERO_GASOLINE_6  TSTRM_ARAB_LIGHT_KERO_6  -1  PBAL_GASOLINE_6          1
    TBL_ARAB_LIGHT_KERO_GASOLINE_6  QUAL_GASOLINE_6          64
    TBL_ARAB_LIGHT_KERO_JET_6  TSTRM_ARAB_LIGHT_KERO_6  -1  PBAL_JET_6               1
    TBL_ARAB_LIGHT_KERO_JET_6  QUAL_JET_6               -2386
    TBL_ARAB_LIGHT_KERO_DIESEL_P_6  TSTRM_ARAB_LIGHT_KERO_6  -1  PBAL_DIESEL_P_6          1
    TBL_ARAB_LIGHT_KERO_DIESEL_P_6  QUAL_DIESEL_P_6          -236
    SLACK_ARAB_LIGHT_DIESEL_6  COST                     -180  STRM_ARAB_LIGHT_DIESEL_6 -1
    HDT_ARAB_LIGHT_DIESEL_6   COST                     -240  STRM_ARAB_LIGHT_DIESEL_6 -1
    HDT_ARAB_LIGHT_DIESEL_6   TSTRM_ARAB_LIGHT_DIESEL_6 1  HDTCAP_6                 1
    BL_ARAB_LIGHT_DIESEL_DIESEL_P_6  STRM_ARAB_LIGHT_DIESEL_6 -1  PBAL_DIESEL_P_6          1
    BL_ARAB_LIGHT_DIESEL_DIESEL_P_6  QUAL_DIESEL_P_6          10100
    BL_ARAB_LIGHT_DIESEL_FUELOIL_6  STRM_ARAB_LIGHT_DIESEL_6 -1  PBAL_FUELOIL_6           1
    BL_ARAB_LIGHT_DIESEL_FUELOIL_6  QUAL_FUELOIL_6           -24550
    TSLACK_ARAB_LIGHT_DIESEL_6  COST                     -180  TSTRM_ARAB_LIGHT_DIESEL_6 -1
    TBL_ARAB_LIGHT_DIESEL_DIESEL_P_6  TSTRM_ARAB_LIGHT_DIESEL_6 -1  PBAL_DIESEL_P_6          1
    TBL_ARAB_LIGHT_DIESEL_DIESEL_P_6  QUAL_DIESEL_P_6          68
    TBL_ARAB_LIGHT_DIESEL_FUELOIL_6  TSTRM_ARAB_LIGHT_DIESEL_6 -1  PBAL_FUELOIL_6           1
    TBL_ARAB_LIGHT_DIESEL_FUELOIL_6  QUAL_FUELOIL_6           -34582
    SLACK_ARAB_LIGHT_VGO_6    COST                     -180  STRM_ARAB_LIGHT_VGO_6    -1
    HDT_ARAB_LIGHT_VGO_6      COST                     -240  STRM_ARAB_LIGHT_VGO_6    -1
    HDT_ARAB_LIGHT_VGO_6      TSTRM_ARAB_LIGHT_VGO_6   1  HDTCAP_6                 1
    FCC_ARAB_LIGHT_6          COST                     -310  STRM_ARAB_LIGHT_VGO_6    -1
    FCC_ARAB_LIGHT_6          FSTRM_ARAB_LIGHT_NAPHTHA_6 0.55  FSTRM_ARAB_LIGHT_DIESEL_6 0.25
    FCC_ARAB_LIGHT_6          FCCCAP_6                 1
    BL_ARAB_LIGHT_VGO_DIESEL_P_6  STRM_ARAB_LIGHT_VGO_6    -1  PBAL_DIESEL_P_6          1
    BL_ARAB_LIGHT_VGO_DIESEL_P_6  QUAL_DIESEL_P_6          25300
    BL_ARAB_LIGHT_VGO_FUELOIL_6  STRM_ARAB_LIGHT_VGO_6    -1  PBAL_FUELOIL_6           1
    BL_ARAB_LIGHT_VGO_FUELOIL_6  QUAL_FUELOIL_6           -9350
    TSLACK_ARAB_LIGHT_VGO_6   COST                     -180  TSTRM_ARAB_LIGHT_VGO_6   -1
    TBL_ARAB_LIGHT_VGO_DIESEL_P_6  TSTRM_ARAB_LIGHT_VGO_6   -1  PBAL_DIESEL_P_6          1
    TBL_ARAB_LIGHT_VGO_DIESEL_P_6  QUAL_DIESEL_P_6          676
    TBL_ARAB_LIGHT_VGO_FUELOIL_6  TSTRM_ARAB_LIGHT_VGO_6   -1  PBAL_FUELOIL_6           1
    TBL_ARAB_LIGHT_VGO_FUELOIL_6  QUAL_FUELOIL_6           -33974
    SLACK_ARAB_LIGHT_RESIDUE_6  COST                     -180  STRM_ARAB_LIGHT_RESIDUE_6 -1
    HDT_ARAB_LIGHT_RESIDUE_6  COST                     -240  STRM_ARAB_LIGHT_RESIDUE_6 -1
    HDT_ARAB_LIGHT_RESIDUE_6  TSTRM_ARAB_LIGHT_RESIDUE_6 1  HDTCAP_6                 1
    BL_ARAB_LIGHT_RESIDUE_FUELOIL_6  STRM_ARAB_LIGHT_RESIDUE_6 -1  PBAL_FUELOIL_6           1
    BL_ARAB_LIGHT_RESIDUE_FUELOIL_6  QUAL_FUELOIL_6           14400
    TSLACK_ARAB_LIGHT_RESIDUE_6  COST                     -180  TSTRM_ARAB_LIGHT_RESIDUE_6 -1
    TBL_ARAB_LIGHT_RESIDUE_FUELOIL_6  TSTRM_ARAB_LIGHT_RESIDUE_6 -1  PBAL_FUELOIL_6           1
    TBL_ARAB_LIGHT_RESIDUE_FUELOIL_6  QUAL_FUELOIL_6           -33024
    FSLACK_ARAB_LIGHT_NAPHTHA_6  COST                     -180  FSTRM_ARAB_LIGHT_NAPHTHA_6 -1
    FBL_ARAB_LIGHT_NAPHTHA_GASOLINE_6  FSTRM_ARAB_LIGHT_NAPHTHA_6 -1  PBAL_GASOLINE_6          1
    FBL_ARAB_LIGHT_NAPHTHA_GASOLINE_6  QUAL_GASOLINE_6          83
    FBL_ARAB_LIGHT_NAPHTHA_JET_6  FSTRM_ARAB_LIGHT_NAPHTHA_6 -1  PBAL_JET_6               1
    FBL_ARAB_LIGHT_NAPHTHA_JET_6  QUAL_JET_6               -2367
    FSLACK_ARAB_LIGHT_DIESEL_6  COST                     -180  FSTRM_ARAB_LIGHT_DIESEL_6 -1
    FBL_ARAB_LIGHT_DIESEL_DIESEL_P_6  FSTRM_ARAB_LIGHT_DIESEL_6 -1  PBAL_DIESEL_P_6          1
    FBL_ARAB_LIGHT_DIESEL_DIESEL_P_6  QUAL_DIESEL_P_6          3307.5
    FBL_ARAB_LIGHT_DIESEL_FUELOIL_6  FSTRM_ARAB_LIGHT_DIESEL_6 -1  PBAL_FUELOIL_6           1
    FBL_ARAB_LIGHT_DIESEL_FUELOIL_6  QUAL_FUELOIL_6           -31342.5
    BUY_ARAB_HEAVY_6          COST                     -5980  CBAL_ARAB_HEAVY_6        1
    INVC_ARAB_HEAVY_6         COST                     -71.76  CBAL_ARAB_HEAVY_6        -1
    INVC_ARAB_HEAVY_6         CBAL_ARAB_HEAVY_7        1
    CHG_ARAB_HEAVY_6          COST                     -145  CBAL_ARAB_HEAVY_6        -1
    CHG_ARAB_HEAVY_6          CDUCAP_6                 1  STRM_ARAB_HEAVY_NAPHTHA_6 0.16
    CHG_ARAB_HEAVY_6          STRM_ARAB_HEAVY_KERO_6   0.14  STRM_ARAB_HEAVY_DIESEL_6 0.21
    CHG_ARAB_HEAVY_6          STRM_ARAB_HEAVY_VGO_6    0.25  STRM_ARAB_HEAVY_RESIDUE_6 0.24
    SLACK_ARAB_HEAVY_NAPHTHA_6  COST                     -180  STRM_ARAB_HEAVY_NAPHTHA_6 -1
    HDT_ARAB_HEAVY_NAPHTHA_6  COST                     -240  STRM_ARAB_HEAVY_NAPHTHA_6 -1
    HDT_ARAB_HEAVY_NAPHTHA_6  TSTRM_ARAB_HEAVY_NAPHTHA_6 1  HDTCAP_6                 1
    BL_ARAB_HEAVY_NAPHTHA_GASOLINE_6  STRM_ARAB_HEAVY_NAPHTHA_6 -1  PBAL_GASOLINE_6          1
    BL_ARAB_HEAVY_NAPHTHA_GASOLINE_6  QUAL_GASOLINE_6          530
    BL_ARAB_HEAVY_NAPHTHA_JET_6  STRM_ARAB_HEAVY_NAPHTHA_6 -1  PBAL_JET_6               1
    BL_ARAB_HEAVY_NAPHTHA_JET_6  QUAL_JET_6               -1920
    TSLACK_ARAB_HEAVY_NAPHTHA_6  COST                     -180  TSTRM_ARAB_HEAVY_NAPHTHA_6 -1
    TBL_ARAB_HEAVY_NAPHTHA_GASOLINE_6  TSTRM_ARAB_HEAVY_NAPHTHA_6 -1  PBAL_GASOLINE_6          1
    TBL_ARAB_HEAVY_NAPHTHA_GASOLINE_6  QUAL_GASOLINE_6          -26.8
    TBL_ARAB_HEAVY_NAPHTHA_JET_6  TSTRM_ARAB_HEAVY_NAPHTHA_6 -1  PBAL_JET_6               1
    TBL_ARAB_HEAVY_NAPHTHA_JET_6  QUAL_JET_6               -2476.8
    SLACK_ARAB_HEAVY_KERO_6   COST                     -180  STRM_ARAB_HEAVY_KERO_6   -1
    HDT_ARAB_HEAVY_KERO_6     COST                     -240  STRM_ARAB_HEAVY_KERO_6   -1
    HDT_ARAB_HEAVY_KERO_6     TSTRM_ARAB_HEAVY_KERO_6  1  HDTCAP_6                 1
    BL_ARAB_HEAVY_KERO_GASOLINE_6  STRM_ARAB_HEAVY_KERO_6   -1  PBAL_GASOLINE_6          1
    BL_ARAB_HEAVY_KERO_GASOLINE_6  QUAL_GASOLINE_6          4300
    BL_ARAB_HEAVY_KERO_JET_6  STRM_ARAB_HEAVY_KERO_6   -1  PBAL_JET_6               1
    BL_ARAB_HEAVY_KERO_JET_6  QUAL_JET_6               1850
    BL_ARAB_HEAVY_KERO_DIESEL_P_6  STRM_ARAB_HEAVY_KERO_6   -1  PBAL_DIESEL_P_6          1
    BL_ARAB_HEAVY_KERO_DIESEL_P_6  QUAL_DIESEL_P_6          4000
    TSLACK_ARAB_HEAVY_KERO_6  COST                     -180  TSTRM_ARAB_HEAVY_KERO_6  -1
    TBL_ARAB_HEAVY_KERO_GASOLINE_6  TSTRM_ARAB_HEAVY_KERO_6  -1  PBAL_GASOLINE_6          1
    TBL_ARAB_HEAVY_KERO_GASOLINE_6  QUAL_GASOLINE_6          124
    TBL_ARAB_HEAVY_KERO_JET_6  TSTRM_ARAB_HEAVY_KERO_6  -1  PBAL_JET_6               1
    TBL_ARAB_HEAVY_KERO_JET_6  QUAL_JET_6               -2326
    TBL_ARAB_HEAVY_KERO_DIESEL_P_6  TSTRM_ARAB_HEAVY_KERO_6  -1  PBAL_DIESEL_P_6          1
    TBL_ARAB_HEAVY_KERO_DIESEL_P_6  QUAL_DIESEL_P_6          -176
    SLACK_ARAB_HEAVY_DIESEL_6  COST                     -180  STRM_ARAB_HEAVY_DIESEL_6 -1
    HDT_ARAB_HEAVY_DIESEL_6   COST                     -240  STRM_ARAB_HEAVY_DIESEL_6 -1
    HDT_ARAB_HEAVY_DIESEL_6   TSTRM_ARAB_HEAVY_DIESEL_6 1  HDTCAP_6                 1
    BL_ARAB_HEAVY_DIESEL_DIESEL_P_6  STRM_ARAB_HEAVY_DIESEL_6 -1  PBAL_DIESEL_P_6          1
    BL_ARAB_HEAVY_DIESEL_DIESEL_P_6  QUAL_DIESEL_P_6          15600
    BL_ARAB_HEAVY_DIESEL_FUELOIL_6  STRM_ARAB_HEAVY_DIESEL_6 -1  PBAL_FUELOIL_6           1
    BL_ARAB_HEAVY_DIESEL_FUELOIL_6  QUAL_FUELOIL_6           -19050
    TSLACK_ARAB_HEAVY_DIESEL_6  COST                     -180  TSTRM_ARAB_HEAVY_DIESEL_6 -1
    TBL_ARAB_HEAVY_DIESEL_DIESEL_P_6  TSTRM_ARAB_HEAVY_DIESEL_6 -1  PBAL_DIESEL_P_6          1
    TBL_ARAB_HEAVY_DIESEL_DIESEL_P_6  QUAL_DIESEL_P_6          288
    TBL_ARAB_HEAVY_DIESEL_FUELOIL_6  TSTRM_ARAB_HEAVY_DIESEL_6 -1  PBAL_FUELOIL_6           1
    TBL_ARAB_HEAVY_DIESEL_FUELOIL_6  QUAL_FUELOIL_6           -34362
    SLACK_ARAB_HEAVY_VGO_6    COST                     -180  STRM_ARAB_HEAVY_VGO_6    -1
    HDT_ARAB_HEAVY_VGO_6      COST                     -240  STRM_ARAB_HEAVY_VGO_6    -1
    HDT_ARAB_HEAVY_VGO_6      TSTRM_ARAB_HEAVY_VGO_6   1  HDTCAP_6                 1
    FCC_ARAB_HEAVY_6          COST                     -310  STRM_ARAB_HEAVY_VGO_6    -1
    FCC_ARAB_HEAVY_6          FSTRM_ARAB_HEAVY_NAPHTHA_6 0.55  FSTRM_ARAB_HEAVY_DIESEL_6 0.25
    FCC_ARAB_HEAVY_6          FCCCAP_6                 1
    BL_ARAB_HEAVY_VGO_DIESEL_P_6  STRM_ARAB_HEAVY_VGO_6    -1  PBAL_DIESEL_P_6          1
    BL_ARAB_HEAVY_VGO_DIESEL_P_6  QUAL_DIESEL_P_6          38800
    BL_ARAB_HEAVY_VGO_FUELOIL_6  STRM_ARAB_HEAVY_VGO_6    -1  PBAL_FUELOIL_6           1
    BL_ARAB_HEAVY_VGO_FUELOIL_6  QUAL_FUELOIL_6           4150
    TSLACK_ARAB_HEAVY_VGO_6   COST                     -180  TSTRM_ARAB_HEAVY_VGO_6   -1
    TBL_ARAB_HEAVY_VGO_DIESEL_P_6  TSTRM_ARAB_HEAVY_VGO_6   -1  PBAL_DIESEL_P_6          1
    TBL_ARAB_HEAVY_VGO_DIESEL_P_6  QUAL_DIESEL_P_6          1216
    TBL_ARAB_HEAVY_VGO_FUELOIL_6  TSTRM_ARAB_HEAVY_VGO_6   -1  PBAL_FUELOIL_6           1
    TBL_ARAB_HEAVY_VGO_FUELOIL_6  QUAL_FUELOIL_6           -33434
    SLACK_ARAB_HEAVY_RESIDUE_6  COST                     -180  STRM_ARAB_HEAVY_RESIDUE_6 -1
    HDT_ARAB_HEAVY_RESIDUE_6  COST                     -240  STRM_ARAB_HEAVY_RESIDUE_6 -1
    HDT_ARAB_HEAVY_RESIDUE_6  TSTRM_ARAB_HEAVY_RESIDUE_6 1  HDTCAP_6                 1
    BL_ARAB_HEAVY_RESIDUE_FUELOIL_6  STRM_ARAB_HEAVY_RESIDUE_6 -1  PBAL_FUELOIL_6           1
    BL_ARAB_HEAVY_RESIDUE_FUELOIL_6  QUAL_FUELOIL_6           40400
    TSLACK_ARAB_HEAVY_RESIDUE_6  COST                     -180  TSTRM_ARAB_HEAVY_RESIDUE_6 -1
    TBL_ARAB_HEAVY_RESIDUE_FUELOIL_6  TSTRM_ARAB_HEAVY_RESIDUE_6 -1  PBAL_FUELOIL_6           1
    TBL_ARAB_HEAVY_RESIDUE_FUELOIL_6  QUAL_FUELOIL_6           -31984
    FSLACK_ARAB_HEAVY_NAPHTHA_6  COST                     -180  FSTRM_ARAB_HEAVY_NAPHTHA_6 -1
    FBL_ARAB_HEAVY_NAPHTHA_GASOLINE_6  FSTRM_ARAB_HEAVY_NAPHTHA_6 -1  PBAL_GASOLINE_6          1
    FBL_ARAB_HEAVY_NAPHTHA_GASOLINE_6  QUAL_GASOLINE_6          153
    FBL_ARAB_HEAVY_NAPHTHA_JET_6  FSTRM_ARAB_HEAVY_NAPHTHA_6 -1  PBAL_JET_6               1
    FBL_ARAB_HEAVY_NAPHTHA_JET_6  QUAL_JET_6               -2297
    FSLACK_ARAB_HEAVY_DIESEL_6  COST                     -180  FSTRM_ARAB_HEAVY_DIESEL_6 -1
    FBL_ARAB_HEAVY_DIESEL_DIESEL_P_6  FSTRM_ARAB_HEAVY_DIESEL_6 -1  PBAL_DIESEL_P_6          1
    FBL_ARAB_HEAVY_DIESEL_DIESEL_P_6  QUAL_DIESEL_P_6          5232.5
    FBL_ARAB_HEAVY_DIESEL_FUELOIL_6  FSTRM_ARAB_HEAVY_DIESEL_6 -1  PBAL_FUELOIL_6           1
    FBL_ARAB_HEAVY_DIESEL_FUELOIL_6  QUAL_FUELOIL_6           -29417.5
    BUY_BASRAH_6              COST                     -6100  CBAL_BASRAH_6            1
    INVC_BASRAH_6             COST                     -73.2  CBAL_BASRAH_6            -1
    INVC_BASRAH_6             CBAL_BASRAH_7            1
    CHG_BASRAH_6              COST                     -145  CBAL_BASRAH_6            -1
    CHG_BASRAH_6              CDUCAP_6                 1  STRM_BASRAH_NAPHTHA_6    0.18
    CHG_BASRAH_6              STRM_BASRAH_KERO_6       0.15  STRM_BASRAH_DIESEL_6     0.22
    CHG_BASRAH_6              STRM_BASRAH_VGO_6        0.24  STRM_BASRAH_RESIDUE_6    0.21
    SLACK_BASRAH_NAPHTHA_6    COST                     -180  STRM_BASRAH_NAPHTHA_6    -1
    HDT_BASRAH_NAPHTHA_6      COST                     -240  STRM_BASRAH_NAPHTHA_6    -1
    HDT_BASRAH_NAPHTHA_6      TSTRM_BASRAH_NAPHTHA_6   1  HDTCAP_6                 1
    BL_BASRAH_NAPHTHA_GASOLINE_6  STRM_BASRAH_NAPHTHA_6    -1  PBAL_GASOLINE_6          1
    BL_BASRAH_NAPHTHA_GASOLINE_6  QUAL_GASOLINE_6          440
    BL_BASRAH_NAPHTHA_JET_6   STRM_BASRAH_NAPHTHA_6    -1  PBAL_JET_6               1
    BL_BASRAH_NAPHTHA_JET_6   QUAL_JET_6               -2010
    TSLACK_BASRAH_NAPHTHA_6   COST                     -180  TSTRM_BASRAH_NAPHTHA_6   -1
    TBL_BASRAH_NAPHTHA_GASOLINE_6  TSTRM_BASRAH_NAPHTHA_6   -1  PBAL_GASOLINE_6          1
    TBL_BASRAH_NAPHTHA_GASOLINE_6  QUAL_GASOLINE_6          -30.4
    TBL_BASRAH_NAPHTHA_JET_6  TSTRM_BASRAH_NAPHTHA_6   -1  PBAL_JET_6               1
    TBL_BASRAH_NAPHTHA_JET_6  QUAL_JET_6               -2480.4
    SLACK_BASRAH_KERO_6       COST                     -180  STRM_BASRAH_KERO_6       -1
    HDT_BASRAH_KERO_6         COST                     -240  STRM_BASRAH_KERO_6       -1
    HDT_BASRAH_KERO_6         TSTRM_BASRAH_KERO_6      1  HDTCAP_6                 1
    BL_BASRAH_KERO_GASOLINE_6  STRM_BASRAH_KERO_6       -1  PBAL_GASOLINE_6          1
    BL_BASRAH_KERO_GASOLINE_6  QUAL_GASOLINE_6          3625
    BL_BASRAH_KERO_JET_6      STRM_BASRAH_KERO_6       -1  PBAL_JET_6               1
    BL_BASRAH_KERO_JET_6      QUAL_JET_6               1175
    BL_BASRAH_KERO_DIESEL_P_6  STRM_BASRAH_KERO_6       -1  PBAL_DIESEL_P_6          1
    BL_BASRAH_KERO_DIESEL_P_6  QUAL_DIESEL_P_6          3325
    TSLACK_BASRAH_KERO_6      COST                     -180  TSTRM_BASRAH_KERO_6      -1
    TBL_BASRAH_KERO_GASOLINE_6  TSTRM_BASRAH_KERO_6      -1  PBAL_GASOLINE_6          1
    TBL_BASRAH_KERO_GASOLINE_6  QUAL_GASOLINE_6          97
    TBL_BASRAH_KERO_JET_6     TSTRM_BASRAH_KERO_6      -1  PBAL_JET_6               1
    TBL_BASRAH_KERO_JET_6     QUAL_JET_6               -2353
    TBL_BASRAH_KERO_DIESEL_P_6  TSTRM_BASRAH_KERO_6      -1  PBAL_DIESEL_P_6          1
    TBL_BASRAH_KERO_DIESEL_P_6  QUAL_DIESEL_P_6          -203
    SLACK_BASRAH_DIESEL_6     COST                     -180  STRM_BASRAH_DIESEL_6     -1
    HDT_BASRAH_DIESEL_6       COST                     -240  STRM_BASRAH_DIESEL_6     -1
    HDT_BASRAH_DIESEL_6       TSTRM_BASRAH_DIESEL_6    1  HDTCAP_6                 1
    BL_BASRAH_DIESEL_DIESEL_P_6  STRM_BASRAH_DIESEL_6     -1  PBAL_DIESEL_P_6          1
    BL_BASRAH_DIESEL_DIESEL_P_6  QUAL_DIESEL_P_6          13125
    BL_BASRAH_DIESEL_FUELOIL_6  STRM_BASRAH_DIESEL_6     -1  PBAL_FUELOIL_6           1
    BL_BASRAH_DIESEL_FUELOIL_6  QUAL_FUELOIL_6           -21525
    TSLACK_BASRAH_DIESEL_6    COST                     -180  TSTRM_BASRAH_DIESEL_6    -1
    TBL_BASRAH_DIESEL_DIESEL_P_6  TSTRM_BASRAH_DIESEL_6    -1  PBAL_DIESEL_P_6          1
    TBL_BASRAH_DIESEL_DIESEL_P_6  QUAL_DIESEL_P_6          189
    TBL_BASRAH_DIESEL_FUELOIL_6  TSTRM_BASRAH_DIESEL_6    -1  PBAL_FUELOIL_6           1
    TBL_BASRAH_DIESEL_FUELOIL_6  QUAL_FUELOIL_6           -34461
    SLACK_BASRAH_VGO_6        COST                     -180  STRM_BASRAH_VGO_6        -1
    HDT_BASRAH_VGO_6          COST                     -240  STRM_BASRAH_VGO_6        -1
    HDT_BASRAH_VGO_6          TSTRM_BASRAH_VGO_6       1  HDTCAP_6                 1
    FCC_BASRAH_6              COST                     -310  STRM_BASRAH_VGO_6        -1
    FCC_BASRAH_6              FSTRM_BASRAH_NAPHTHA_6   0.55  FSTRM_BASRAH_DIESEL_6    0.25
    FCC_BASRAH_6              FCCCAP_6                 1
    BL_BASRAH_VGO_DIESEL_P_6  STRM_BASRAH_VGO_6        -1  PBAL_DIESEL_P_6          1
    BL_BASRAH_VGO_DIESEL_P_6  QUAL_DIESEL_P_6          32725
    BL_BASRAH_VGO_FUELOIL_6   STRM_BASRAH_VGO_6        -1  PBAL_FUELOIL_6           1
    BL_BASRAH_VGO_FUELOIL_6   QUAL_FUELOIL_6           -1925
    TSLACK_BASRAH_VGO_6       COST                     -180  TSTRM_BASRAH_VGO_6       -1
    TBL_BASRAH_VGO_DIESEL_P_6  TSTRM_BASRAH_VGO_6       -1  PBAL_DIESEL_P_6          1
    TBL_BASRAH_VGO_DIESEL_P_6  QUAL_DIESEL_P_6          973
    TBL_BASRAH_VGO_FUELOIL_6  TSTRM_BASRAH_VGO_6       -1  PBAL_FUELOIL_6           1
    TBL_BASRAH_VGO_FUELOIL_6  QUAL_FUELOIL_6           -33677
    SLACK_BASRAH_RESIDUE_6    COST                     -180  STRM_BASRAH_RESIDUE_6    -1
    HDT_BASRAH_RESIDUE_6      COST                     -240  STRM_BASRAH_RESIDUE_6    -1
    HDT_BASRAH_RESIDUE_6      TSTRM_BASRAH_RESIDUE_6   1  HDTCAP_6                 1
    BL_BASRAH_RESIDUE_FUELOIL_6  STRM_BASRAH_RESIDUE_6    -1  PBAL_FUELOIL_6           1
    BL_BASRAH_RESIDUE_FUELOIL_6  QUAL_FUELOIL_6           28700
    TSLACK_BASRAH_RESIDUE_6   COST                     -180  TSTRM_BASRAH_RESIDUE_6   -1
    TBL_BASRAH_RESIDUE_FUELOIL_6  TSTRM_BASRAH_RESIDUE_6   -1  PBAL_FUELOIL_6           1
    TBL_BASRAH_RESIDUE_FUELOIL_6  QUAL_FUELOIL_6           -32452
    FSLACK_BASRAH_NAPHTHA_6   COST                     -180  FSTRM_BASRAH_NAPHTHA_6   -1
    FBL_BASRAH_NAPHTHA_GASOLINE_6  FSTRM_BASRAH_NAPHTHA_6   -1  PBAL_GASOLINE_6          1
    FBL_BASRAH_NAPHTHA_GASOLINE_6  QUAL_GASOLINE_6          121.5
    FBL_BASRAH_NAPHTHA_JET_6  FSTRM_BASRAH_NAPHTHA_6   -1  PBAL_JET_6               1
    FBL_BASRAH_NAPHTHA_JET_6  QUAL_JET_6               -2328.5
    FSLACK_BASRAH_DIESEL_6    COST                     -180  FSTRM_BASRAH_DIESEL_6    -1
    FBL_BASRAH_DIESEL_DIESEL_P_6  FSTRM_BASRAH_DIESEL_6    -1  PBAL_DIESEL_P_6          1
    FBL_BASRAH_DIESEL_DIESEL_P_6  QUAL_DIESEL_P_6          4366.25
    FBL_BASRAH_DIESEL_FUELOIL_6  FSTRM_BASRAH_DIESEL_6    -1  PBAL_FUELOIL_6           1
    FBL_BASRAH_DIESEL_FUELOIL_6  QUAL_FUELOIL_6           -30283.75
    BUY_URALS_6               COST                     -6260  CBAL_URALS_6             1
    INVC_URALS_6              COST                     -75.12  CBAL_URALS_6             -1
    INVC_URALS_6              CBAL_URALS_7             1
    CHG_URALS_6               COST                     -145  CBAL_URALS_6             -1
    CHG_URALS_6               CDUCAP_6                 1  STRM_URALS_NAPHTHA_6     0.2
    CHG_URALS_6               STRM_URALS_KERO_6        0.16  STRM_URALS_DIESEL_6      0.24
    CHG_URALS_6               STRM_URALS_VGO_6         0.23  STRM_URALS_RESIDUE_6     0.17
    SLACK_URALS_NAPHTHA_6     COST                     -180  STRM_URALS_NAPHTHA_6     -1
    HDT_URALS_NAPHTHA_6       COST                     -240  STRM_URALS_NAPHTHA_6     -1
    HDT_URALS_NAPHTHA_6       TSTRM_URALS_NAPHTHA_6    1  HDTCAP_6                 1
    BL_URALS_NAPHTHA_GASOLINE_6  STRM_URALS_NAPHTHA_6     -1  PBAL_GASOLINE_6          1
    BL_URALS_NAPHTHA_GASOLINE_6  QUAL_GASOLINE_6          226
    BL_URALS_NAPHTHA_JET_6    STRM_URALS_NAPHTHA_6     -1  PBAL_JET_6               1
    BL_URALS_NAPHTHA_JET_6    QUAL_JET_6               -2224
    TSLACK_URALS_NAPHTHA_6    COST                     -180  TSTRM_URALS_NAPHTHA_6    -1
    TBL_URALS_NAPHTHA_GASOLINE_6  TSTRM_URALS_NAPHTHA_6    -1  PBAL_GASOLINE_6          1
    TBL_URALS_NAPHTHA_GASOLINE_6  QUAL_GASOLINE_6          -38.96
    TBL_URALS_NAPHTHA_JET_6   TSTRM_URALS_NAPHTHA_6    -1  PBAL_JET_6               1
    TBL_URALS_NAPHTHA_JET_6   QUAL_JET_6               -2488.96
    SLACK_URALS_KERO_6        COST                     -180  STRM_URALS_KERO_6        -1
    HDT_URALS_KERO_6          COST                     -240  STRM_URALS_KERO_6        -1
    HDT_URALS_KERO_6          TSTRM_URALS_KERO_6       1  HDTCAP_6                 1
    BL_URALS_KERO_GASOLINE_6  STRM_URALS_KERO_6        -1  PBAL_GASOLINE_6          1
    BL_URALS_KERO_GASOLINE_6  QUAL_GASOLINE_6          2020
    BL_URALS_KERO_JET_6       STRM_URALS_KERO_6        -1  PBAL_JET_6               1
    BL_URALS_KERO_JET_6       QUAL_JET_6               -430
    BL_URALS_KERO_DIESEL_P_6  STRM_URALS_KERO_6        -1  PBAL_DIESEL_P_6          1
    BL_URALS_KERO_DIESEL_P_6  QUAL_DIESEL_P_6          1720
    TSLACK_URALS_KERO_6       COST                     -180  TSTRM_URALS_KERO_6       -1
    TBL_URALS_KERO_GASOLINE_6  TSTRM_URALS_KERO_6       -1  PBAL_GASOLINE_6          1
    TBL_URALS_KERO_GASOLINE_6  QUAL_GASOLINE_6          32.8
    TBL_URALS_KERO_JET_6      TSTRM_URALS_KERO_6       -1  PBAL_JET_6               1
    TBL_URALS_KERO_JET_6      QUAL_JET_6               -2417.2
    TBL_URALS_KERO_DIESEL_P_6  TSTRM_URALS_KERO_6       -1  PBAL_DIESEL_P_6          1
    TBL_URALS_KERO_DIESEL_P_6  QUAL_DIESEL_P_6          -267.2
    SLACK_URALS_DIESEL_6      COST                     -180  STRM_URALS_DIESEL_6      -1
    HDT_URALS_DIESEL_6        COST                     -240  STRM_URALS_DIESEL_6      -1
    HDT_URALS_DIESEL_6        TSTRM_URALS_DIESEL_6     1  HDTCAP_6                 1
    BL_URALS_DIESEL_DIESEL_P_6  STRM_URALS_DIESEL_6      -1  PBAL_DIESEL_P_6          1
    BL_URALS_DIESEL_DIESEL_P_6  QUAL_DIESEL_P_6          7240
    BL_URALS_DIESEL_FUELOIL_6  STRM_URALS_DIESEL_6      -1  PBAL_FUELOIL_6           1
    BL_URALS_DIESEL_FUELOIL_6  QUAL_FUELOIL_6           -27410
    TSLACK_URALS_DIESEL_6     COST                     -180  TSTRM_URALS_DIESEL_6     -1
    TBL_URALS_DIESEL_DIESEL_P_6  TSTRM_URALS_DIESEL_6     -1  PBAL_DIESEL_P_6          1
    TBL_URALS_DIESEL_DIESEL_P_6  QUAL_DIESEL_P_6          -46.4
    TBL_URALS_DIESEL_FUELOIL_6  TSTRM_URALS_DIESEL_6     -1  PBAL_FUELOIL_6           1
    TBL_URALS_DIESEL_FUELOIL_6  QUAL_FUELOIL_6           -34696.4
    SLACK_URALS_VGO_6         COST                     -180  STRM_URALS_VGO_6         -1
    HDT_URALS_VGO_6           COST                     -240  STRM_URALS_VGO_6         -1
    HDT_URALS_VGO_6           TSTRM_URALS_VGO_6        1  HDTCAP_6                 1
    FCC_URALS_6               COST                     -310  STRM_URALS_VGO_6         -1
    FCC_URALS_6               FSTRM_URALS_NAPHTHA_6    0.55  FSTRM_URALS_DIESEL_6     0.25
    FCC_URALS_6               FCCCAP_6                 1
    BL_URALS_VGO_DIESEL_P_6   STRM_URALS_VGO_6         -1  PBAL_DIESEL_P_6          1
    BL_URALS_VGO_DIESEL_P_6   QUAL_DIESEL_P_6          18280
    BL_URALS_VGO_FUELOIL_6    STRM_URALS_VGO_6         -1  PBAL_FUELOIL_6           1
    BL_URALS_VGO_FUELOIL_6    QUAL_FUELOIL_6           -16370
    TSLACK_URALS_VGO_6        COST                     -180  TSTRM_URALS_VGO_6        -1
    TBL_URALS_VGO_DIESEL_P_6  TSTRM_URALS_VGO_6        -1  PBAL_DIESEL_P_6          1
    TBL_URALS_VGO_DIESEL_P_6  QUAL_DIESEL_P_6          395.2
    TBL_URALS_VGO_FUELOIL_6   TSTRM_URALS_VGO_6        -1  PBAL_FUELOIL_6           1
    TBL_URALS_VGO_FUELOIL_6   QUAL_FUELOIL_6           -34254.8
    SLACK_URALS_RESIDUE_6     COST                     -180  STRM_URALS_RESIDUE_6     -1
    HDT_URALS_RESIDUE_6       COST                     -240  STRM_URALS_RESIDUE_6     -1
    HDT_URALS_RESIDUE_6       TSTRM_URALS_RESIDUE_6    1  HDTCAP_6                 1
    BL_URALS_RESIDUE_FUELOIL_6  STRM_URALS_RESIDUE_6     -1  PBAL_FUELOIL_6           1
    BL_URALS_RESIDUE_FUELOIL_6  QUAL_FUELOIL_6           880
    TSLACK_URALS_RESIDUE_6    COST                     -180  TSTRM_URALS_RESIDUE_6    -1
    TBL_URALS_RESIDUE_FUELOIL_6  TSTRM_URALS_RESIDUE_6    -1  PBAL_FUELOIL_6           1
    TBL_URALS_RESIDUE_FUELOIL_6  QUAL_FUELOIL_6           -33564.8
    FSLACK_URALS_NAPHTHA_6    COST                     -180  FSTRM_URALS_NAPHTHA_6    -1
    FBL_URALS_NAPHTHA_GASOLINE_6  FSTRM_URALS_NAPHTHA_6    -1  PBAL_GASOLINE_6          1
    FBL_URALS_NAPHTHA_GASOLINE_6  QUAL_GASOLINE_6          46.6
    FBL_URALS_NAPHTHA_JET_6   FSTRM_URALS_NAPHTHA_6    -1  PBAL_JET_6               1
    FBL_URALS_NAPHTHA_JET_6   QUAL_JET_6               -2403.4
    FSLACK_URALS_DIESEL_6     COST                     -180  FSTRM_URALS_DIESEL_6     -1
    FBL_URALS_DIESEL_DIESEL_P_6  FSTRM_URALS_DIESEL_6     -1  PBAL_DIESEL_P_6          1
    FBL_URALS_DIESEL_DIESEL_P_6  QUAL_DIESEL_P_6          2306.5
    FBL_URALS_DIESEL_FUELOIL_6  FSTRM_URALS_DIESEL_6     -1  PBAL_FUELOIL_6           1
    FBL_URALS_DIESEL_FUELOIL_6  QUAL_FUELOIL_6           -32343.5
    BUY_MURBAN_6              COST                     -6980  CBAL_MURBAN_6            1
    INVC_MURBAN_6             COST                     -83.76  CBAL_MURBAN_6            -1
    INVC_MURBAN_6             CBAL_MURBAN_7            1
    CHG_MURBAN_6              COST                     -145  CBAL_MURBAN_6            -1
    CHG_MURBAN_6              CDUCAP_6                 1  STRM_MURBAN_NAPHTHA_6    0.28
    CHG_MURBAN_6              STRM_MURBAN_KERO_6       0.19  STRM_MURBAN_DIESEL_6     0.23
    CHG_MURBAN_6              STRM_MURBAN_VGO_6        0.19  STRM_MURBAN_RESIDUE_6    0.11
    SLACK_MURBAN_NAPHTHA_6    COST                     -180  STRM_MURBAN_NAPHTHA_6    -1
    HDT_MURBAN_NAPHTHA_6      COST                     -240  STRM_MURBAN_NAPHTHA_6    -1
    HDT_MURBAN_NAPHTHA_6      TSTRM_MURBAN_NAPHTHA_6   1  HDTCAP_6                 1
    BL_MURBAN_NAPHTHA_GASOLINE_6  STRM_MURBAN_NAPHTHA_6    -1  PBAL_GASOLINE_6          1
    BL_MURBAN_NAPHTHA_GASOLINE_6  QUAL_GASOLINE_6          98
    BL_MURBAN_NAPHTHA_JET_6   STRM_MURBAN_NAPHTHA_6    -1  PBAL_JET_6               1
    BL_MURBAN_NAPHTHA_JET_6   QUAL_JET_6               -2352
    TSLACK_MURBAN_NAPHTHA_6   COST                     -180  TSTRM_MURBAN_NAPHTHA_6   -1
    TBL_MURBAN_NAPHTHA_GASOLINE_6  TSTRM_MURBAN_NAPHTHA_6   -1  PBAL_GASOLINE_6          1
    TBL_MURBAN_NAPHTHA_GASOLINE_6  QUAL_GASOLINE_6          -44.08
    TBL_MURBAN_NAPHTHA_JET_6  TSTRM_MURBAN_NAPHTHA_6   -1  PBAL_JET_6               1
    TBL_MURBAN_NAPHTHA_JET_6  QUAL_JET_6               -2494.08
    SLACK_MURBAN_KERO_6       COST                     -180  STRM_MURBAN_KERO_6       -1
    HDT_MURBAN_KERO_6         COST                     -240  STRM_MURBAN_KERO_6       -1
    HDT_MURBAN_KERO_6         TSTRM_MURBAN_KERO_6      1  HDTCAP_6                 1
    BL_MURBAN_KERO_GASOLINE_6  STRM_MURBAN_KERO_6       -1  PBAL_GASOLINE_6          1
    BL_MURBAN_KERO_GASOLINE_6  QUAL_GASOLINE_6          1060
    BL_MURBAN_KERO_JET_6      STRM_MURBAN_KERO_6       -1  PBAL_JET_6               1
    BL_MURBAN_KERO_JET_6      QUAL_JET_6               -1390
    BL_MURBAN_KERO_DIESEL_P_6  STRM_MURBAN_KERO_6       -1  PBAL_DIESEL_P_6          1
    BL_MURBAN_KERO_DIESEL_P_6  QUAL_DIESEL_P_6          760
    TSLACK_MURBAN_KERO_6      COST                     -180  TSTRM_MURBAN_KERO_6      -1
    TBL_MURBAN_KERO_GASOLINE_6  TSTRM_MURBAN_KERO_6      -1  PBAL_GASOLINE_6          1
    TBL_MURBAN_KERO_GASOLINE_6  QUAL_GASOLINE_6          -5.6
    TBL_MURBAN_KERO_JET_6     TSTRM_MURBAN_KERO_6      -1  PBAL_JET_6               1
    TBL_MURBAN_KERO_JET_6     QUAL_JET_6               -2455.6
    TBL_MURBAN_KERO_DIESEL_P_6  TSTRM_MURBAN_KERO_6      -1  PBAL_DIESEL_P_6          1
    TBL_MURBAN_KERO_DIESEL_P_6  QUAL_DIESEL_P_6          -305.6
    SLACK_MURBAN_DIESEL_6     COST                     -180  STRM_MURBAN_DIESEL_6     -1
    HDT_MURBAN_DIESEL_6       COST                     -240  STRM_MURBAN_DIESEL_6     -1
    HDT_MURBAN_DIESEL_6       TSTRM_MURBAN_DIESEL_6    1  HDTCAP_6                 1
    BL_MURBAN_DIESEL_DIESEL_P_6  STRM_MURBAN_DIESEL_6     -1  PBAL_DIESEL_P_6          1
    BL_MURBAN_DIESEL_DIESEL_P_6  QUAL_DIESEL_P_6          3720
    BL_MURBAN_DIESEL_FUELOIL_6  STRM_MURBAN_DIESEL_6     -1  PBAL_FUELOIL_6           1
    BL_MURBAN_DIESEL_FUELOIL_6  QUAL_FUELOIL_6           -30930
    TSLACK_MURBAN_DIESEL_6    COST                     -180  TSTRM_MURBAN_DIESEL_6    -1
    TBL_MURBAN_DIESEL_DIESEL_P_6  TSTRM_MURBAN_DIESEL_6    -1  PBAL_DIESEL_P_6          1
    TBL_MURBAN_DIESEL_DIESEL_P_6  QUAL_DIESEL_P_6          -187.2
    TBL_MURBAN_DIESEL_FUELOIL_6  TSTRM_MURBAN_DIESEL_6    -1  PBAL_FUELOIL_6           1
    TBL_MURBAN_DIESEL_FUELOIL_6  QUAL_FUELOIL_6           -34837.2
    SLACK_MURBAN_VGO_6        COST                     -180  STRM_MURBAN_VGO_6        -1
    HDT_MURBAN_VGO_6          COST                     -240  STRM_MURBAN_VGO_6        -1
    HDT_MURBAN_VGO_6          TSTRM_MURBAN_VGO_6       1  HDTCAP_6                 1
    FCC_MURBAN_6              COST                     -310  STRM_MURBAN_VGO_6        -1
    FCC_MURBAN_6              FSTRM_MURBAN_NAPHTHA_6   0.55  FSTRM_MURBAN_DIESEL_6    0.25
    FCC_MURBAN_6              FCCCAP_6                 1
    BL_MURBAN_VGO_DIESEL_P_6  STRM_MURBAN_VGO_6        -1  PBAL_DIESEL_P_6          1
    BL_MURBAN_VGO_DIESEL_P_6  QUAL_DIESEL_P_6          9640
    BL_MURBAN_VGO_FUELOIL_6   STRM_MURBAN_VGO_6        -1  PBAL_FUELOIL_6           1
    BL_MURBAN_VGO_FUELOIL_6   QUAL_FUELOIL_6           -25010
    TSLACK_MURBAN_VGO_6       COST                     -180  TSTRM_MURBAN_VGO_6       -1
    TBL_MURBAN_VGO_DIESEL_P_6  TSTRM_MURBAN_VGO_6       -1  PBAL_DIESEL_P_6          1
    TBL_MURBAN_VGO_DIESEL_P_6  QUAL_DIESEL_P_6          49.6
    TBL_MURBAN_VGO_FUELOIL_6  TSTRM_MURBAN_VGO_6       -1  PBAL_FUELOIL_6           1
    TBL_MURBAN_VGO_FUELOIL_6  QUAL_FUELOIL_6           -34600.4
    SLACK_MURBAN_RESIDUE_6    COST                     -180  STRM_MURBAN_RESIDUE_6    -1
    HDT_MURBAN_RESIDUE_6      COST                     -240  STRM_MURBAN_RESIDUE_6    -1
    HDT_MURBAN_RESIDUE_6      TSTRM_MURBAN_RESIDUE_6   1  HDTCAP_6                 1
    BL_MURBAN_RESIDUE_FUELOIL_6  STRM_MURBAN_RESIDUE_6    -1  PBAL_FUELOIL_6           1
    BL_MURBAN_RESIDUE_FUELOIL_6  QUAL_FUELOIL_6           -15760
    TSLACK_MURBAN_RESIDUE_6   COST                     -180  TSTRM_MURBAN_RESIDUE_6   -1
    TBL_MURBAN_RESIDUE_FUELOIL_6  TSTRM_MURBAN_RESIDUE_6   -1  PBAL_FUELOIL_6           1
    TBL_MURBAN_RESIDUE_FUELOIL_6  QUAL_FUELOIL_6           -34230.4
    FSLACK_MURBAN_NAPHTHA_6   COST                     -180  FSTRM_MURBAN_NAPHTHA_6   -1
    FBL_MURBAN_NAPHTHA_GASOLINE_6  FSTRM_MURBAN_NAPHTHA_6   -1  PBAL_GASOLINE_6          1
    FBL_MURBAN_NAPHTHA_GASOLINE_6  QUAL_GASOLINE_6          1.8
    FBL_MURBAN_NAPHTHA_JET_6  FSTRM_MURBAN_NAPHTHA_6   -1  PBAL_JET_6               1
    FBL_MURBAN_NAPHTHA_JET_6  QUAL_JET_6               -2448.2
    FSLACK_MURBAN_DIESEL_6    COST                     -180  FSTRM_MURBAN_DIESEL_6    -1
    FBL_MURBAN_DIESEL_DIESEL_P_6  FSTRM_MURBAN_DIESEL_6    -1  PBAL_DIESEL_P_6          1
    FBL_MURBAN_DIESEL_DIESEL_P_6  QUAL_DIESEL_P_6          1074.5
    FBL_MURBAN_DIESEL_FUELOIL_6  FSTRM_MURBAN_DIESEL_6    -1  PBAL_FUELOIL_6           1
    FBL_MURBAN_DIESEL_FUELOIL_6  QUAL_FUELOIL_6           -33575.5
    BUY_ES_SIDER_6            COST                     -6540  CBAL_ES_SIDER_6          1
    INVC_ES_SIDER_6           COST                     -78.48  CBAL_ES_SIDER_6          -1
    INVC_ES_SIDER_6           CBAL_ES_SIDER_7          1
    CHG_ES_SIDER_6            COST                     -145  CBAL_ES_SIDER_6          -1
    CHG_ES_SIDER_6            CDUCAP_6                 1  STRM_ES_SIDER_NAPHTHA_6  0.25
    CHG_ES_SIDER_6            STRM_ES_SIDER_KERO_6     0.18  STRM_ES_SIDER_DIESEL_6   0.25
    CHG_ES_SIDER_6            STRM_ES_SIDER_VGO_6      0.2  STRM_ES_SIDER_RESIDUE_6  0.12
    SLACK_ES_SIDER_NAPHTHA_6  COST                     -180  STRM_ES_SIDER_NAPHTHA_6  -1
    HDT_ES_SIDER_NAPHTHA_6    COST                     -240  STRM_ES_SIDER_NAPHTHA_6  -1
    HDT_ES_SIDER_NAPHTHA_6    TSTRM_ES_SIDER_NAPHTHA_6 1  HDTCAP_6                 1
    BL_ES_SIDER_NAPHTHA_GASOLINE_6  STRM_ES_SIDER_NAPHTHA_6  -1  PBAL_GASOLINE_6          1
    BL_ES_SIDER_NAPHTHA_GASOLINE_6  QUAL_GASOLINE_6          32
    BL_ES_SIDER_NAPHTHA_JET_6  STRM_ES_SIDER_NAPHTHA_6  -1  PBAL_JET_6               1
    BL_ES_SIDER_NAPHTHA_JET_6  QUAL_JET_6               -2418
    TSLACK_ES_SIDER_NAPHTHA_6  COST                     -180  TSTRM_ES_SIDER_NAPHTHA_6 -1
    TBL_ES_SIDER_NAPHTHA_GASOLINE_6  TSTRM_ES_SIDER_NAPHTHA_6 -1  PBAL_GASOLINE_6          1
    TBL_ES_SIDER_NAPHTHA_GASOLINE_6  QUAL_GASOLINE_6          -46.72
    TBL_ES_SIDER_NAPHTHA_JET_6  TSTRM_ES_SIDER_NAPHTHA_6 -1  PBAL_JET_6               1
    TBL_ES_SIDER_NAPHTHA_JET_6  QUAL_JET_6               -2496.72
    SLACK_ES_SIDER_KERO_6     COST                     -180  STRM_ES_SIDER_KERO_6     -1
    HDT_ES_SIDER_KERO_6       COST                     -240  STRM_ES_SIDER_KERO_6     -1
    HDT_ES_SIDER_KERO_6       TSTRM_ES_SIDER_KERO_6    1  HDTCAP_6                 1
    BL_ES_SIDER_KERO_GASOLINE_6  STRM_ES_SIDER_KERO_6     -1  PBAL_GASOLINE_6          1
    BL_ES_SIDER_KERO_GASOLINE_6  QUAL_GASOLINE_6          565
    BL_ES_SIDER_KERO_JET_6    STRM_ES_SIDER_KERO_6     -1  PBAL_JET_6               1
    BL_ES_SIDER_KERO_JET_6    QUAL_JET_6               -1885
    BL_ES_SIDER_KERO_DIESEL_P_6  STRM_ES_SIDER_KERO_6     -1  PBAL_DIESEL_P_6          1
    BL_ES_SIDER_KERO_DIESEL_P_6  QUAL_DIESEL_P_6          265
    TSLACK_ES_SIDER_KERO_6    COST                     -180  TSTRM_ES_SIDER_KERO_6    -1
    TBL_ES_SIDER_KERO_GASOLINE_6  TSTRM_ES_SIDER_KERO_6    -1  PBAL_GASOLINE_6          1
    TBL_ES_SIDER_KERO_GASOLINE_6  QUAL_GASOLINE_6          -25.4
    TBL_ES_SIDER_KERO_JET_6   TSTRM_ES_SIDER_KERO_6    -1  PBAL_JET_6               1
    TBL_ES_SIDER_KERO_JET_6   QUAL_JET_6               -2475.4
    TBL_ES_SIDER_KERO_DIESEL_P_6  TSTRM_ES_SIDER_KERO_6    -1  PBAL_DIESEL_P_6          1
    TBL_ES_SIDER_KERO_DIESEL_P_6  QUAL_DIESEL_P_6          -325.4
    SLACK_ES_SIDER_DIESEL_6   COST                     -180  STRM_ES_SIDER_DIESEL_6   -1
    HDT_ES_SIDER_DIESEL_6     COST                     -240  STRM_ES_SIDER_DIESEL_6   -1
    HDT_ES_SIDER_DIESEL_6     TSTRM_ES_SIDER_DIESEL_6  1  HDTCAP_6                 1
    BL_ES_SIDER_DIESEL_DIESEL_P_6  STRM_ES_SIDER_DIESEL_6   -1  PBAL_DIESEL_P_6          1
    BL_ES_SIDER_DIESEL_DIESEL_P_6  QUAL_DIESEL_P_6          1905
    BL_ES_SIDER_DIESEL_FUELOIL_6  STRM_ES_SIDER_DIESEL_6   -1  PBAL_FUELOIL_6           1
    BL_ES_SIDER_DIESEL_FUELOIL_6  QUAL_FUELOIL_6           -32745
    TSLACK_ES_SIDER_DIESEL_6  COST                     -180  TSTRM_ES_SIDER_DIESEL_6  -1
    TBL_ES_SIDER_DIESEL_DIESEL_P_6  TSTRM_ES_SIDER_DIESEL_6  -1  PBAL_DIESEL_P_6          1
    TBL_ES_SIDER_DIESEL_DIESEL_P_6  QUAL_DIESEL_P_6          -259.8
    TBL_ES_SIDER_DIESEL_FUELOIL_6  TSTRM_ES_SIDER_DIESEL_6  -1  PBAL_FUELOIL_6           1
    TBL_ES_SIDER_DIESEL_FUELOIL_6  QUAL_FUELOIL_6           -34909.8
    SLACK_ES_SIDER_VGO_6      COST                     -180  STRM_ES_SIDER_VGO_6      -1
    HDT_ES_SIDER_VGO_6        COST                     -240  STRM_ES_SIDER_VGO_6      -1
    HDT_ES_SIDER_VGO_6        TSTRM_ES_SIDER_VGO_6     1  HDTCAP_6                 1
    FCC_ES_SIDER_6            COST                     -310  STRM_ES_SIDER_VGO_6      -1
    FCC_ES_SIDER_6            FSTRM_ES_SIDER_NAPHTHA_6 0.55  FSTRM_ES_SIDER_DIESEL_6  0.25
    FCC_ES_SIDER_6            FCCCAP_6                 1
    BL_ES_SIDER_VGO_DIESEL_P_6  STRM_ES_SIDER_VGO_6      -1  PBAL_DIESEL_P_6          1
    BL_ES_SIDER_VGO_DIESEL_P_6  QUAL_DIESEL_P_6          5185
    BL_ES_SIDER_VGO_FUELOIL_6  STRM_ES_SIDER_VGO_6      -1  PBAL_FUELOIL_6           1
    BL_ES_SIDER_VGO_FUELOIL_6  QUAL_FUELOIL_6           -29465
    TSLACK_ES_SIDER_VGO_6     COST                     -180  TSTRM_ES_SIDER_VGO_6     -1
    TBL_ES_SIDER_VGO_DIESEL_P_6  TSTRM_ES_SIDER_VGO_6     -1  PBAL_DIESEL_P_6          1
    TBL_ES_SIDER_VGO_DIESEL_P_6  QUAL_DIESEL_P_6          -128.6
    TBL_ES_SIDER_VGO_FUELOIL_6  TSTRM_ES_SIDER_VGO_6     -1  PBAL_FUELOIL_6           1
    TBL_ES_SIDER_VGO_FUELOIL_6  QUAL_FUELOIL_6           -34778.6
    SLACK_ES_SIDER_RESIDUE_6  COST                     -180  STRM_ES_SIDER_RESIDUE_6  -1
    HDT_ES_SIDER_RESIDUE_6    COST                     -240  STRM_ES_SIDER_RESIDUE_6  -1
    HDT_ES_SIDER_RESIDUE_6    TSTRM_ES_SIDER_RESIDUE_6 1  HDTCAP_6                 1
    BL_ES_SIDER_RESIDUE_FUELOIL_6  STRM_ES_SIDER_RESIDUE_6  -1  PBAL_FUELOIL_6           1
    BL_ES_SIDER_RESIDUE_FUELOIL_6  QUAL_FUELOIL_6           -24340
    TSLACK_ES_SIDER_RESIDUE_6  COST                     -180  TSTRM_ES_SIDER_RESIDUE_6 -1
    TBL_ES_SIDER_RESIDUE_FUELOIL_6  TSTRM_ES_SIDER_RESIDUE_6 -1  PBAL_FUELOIL_6           1
    TBL_ES_SIDER_RESIDUE_FUELOIL_6  QUAL_FUELOIL_6           -34573.6
    FSLACK_ES_SIDER_NAPHTHA_6  COST                     -180  FSTRM_ES_SIDER_NAPHTHA_6 -1
    FBL_ES_SIDER_NAPHTHA_GASOLINE_6  FSTRM_ES_SIDER_NAPHTHA_6 -1  PBAL_GASOLINE_6          1
    FBL_ES_SIDER_NAPHTHA_GASOLINE_6  QUAL_GASOLINE_6          -21.3
    FBL_ES_SIDER_NAPHTHA_JET_6  FSTRM_ES_SIDER_NAPHTHA_6 -1  PBAL_JET_6               1
    FBL_ES_SIDER_NAPHTHA_JET_6  QUAL_JET_6               -2471.3
    FSLACK_ES_SIDER_DIESEL_6  COST                     -180  FSTRM_ES_SIDER_DIESEL_6  -1
    FBL_ES_SIDER_DIESEL_DIESEL_P_6  FSTRM_ES_SIDER_DIESEL_6  -1  PBAL_DIESEL_P_6          1
    FBL_ES_SIDER_DIESEL_DIESEL_P_6  QUAL_DIESEL_P_6          439.25
    FBL_ES_SIDER_DIESEL_FUELOIL_6  FSTRM_ES_SIDER_DIESEL_6  -1  PBAL_FUELOIL_6           1
    FBL_ES_SIDER_DIESEL_FUELOIL_6  QUAL_FUELOIL_6           -34210.75
    BUY_QUA_IBOE_6            COST                     -6890  CBAL_QUA_IBOE_6          1
    INVC_QUA_IBOE_6           COST                     -82.68  CBAL_QUA_IBOE_6          -1
    INVC_QUA_IBOE_6           CBAL_QUA_IBOE_7          1
    CHG_QUA_IBOE_6            COST                     -145  CBAL_QUA_IBOE_6          -1
    CHG_QUA_IBOE_6            CDUCAP_6                 1  STRM_QUA_IBOE_NAPHTHA_6  0.27
    CHG_QUA_IBOE_6            STRM_QUA_IBOE_KERO_6     0.2  STRM_QUA_IBOE_DIESEL_6   0.25
    CHG_QUA_IBOE_6            STRM_QUA_IBOE_VGO_6      0.18  STRM_QUA_IBOE_RESIDUE_6  0.1
    SLACK_QUA_IBOE_NAPHTHA_6  COST                     -180  STRM_QUA_IBOE_NAPHTHA_6  -1
    HDT_QUA_IBOE_NAPHTHA_6    COST                     -240  STRM_QUA_IBOE_NAPHTHA_6  -1
    HDT_QUA_IBOE_NAPHTHA_6    TSTRM_QUA_IBOE_NAPHTHA_6 1  HDTCAP_6                 1
    BL_QUA_IBOE_NAPHTHA_GASOLINE_6  STRM_QUA_IBOE_NAPHTHA_6  -1  PBAL_GASOLINE_6          1
    BL_QUA_IBOE_NAPHTHA_GASOLINE_6  QUAL_GASOLINE_6          -24
    BL_QUA_IBOE_NAPHTHA_JET_6  STRM_QUA_IBOE_NAPHTHA_6  -1  PBAL_JET_6               1
    BL_QUA_IBOE_NAPHTHA_JET_6  QUAL_JET_6               -2474
    TSLACK_QUA_IBOE_NAPHTHA_6  COST                     -180  TSTRM_QUA_IBOE_NAPHTHA_6 -1
    TBL_QUA_IBOE_NAPHTHA_GASOLINE_6  TSTRM_QUA_IBOE_NAPHTHA_6 -1  PBAL_GASOLINE_6          1
    TBL_QUA_IBOE_NAPHTHA_GASOLINE_6  QUAL_GASOLINE_6          -48.96
    TBL_QUA_IBOE_NAPHTHA_JET_6  TSTRM_QUA_IBOE_NAPHTHA_6 -1  PBAL_JET_6               1
    TBL_QUA_IBOE_NAPHTHA_JET_6  QUAL_JET_6               -2498.96
    SLACK_QUA_IBOE_KERO_6     COST                     -180  STRM_QUA_IBOE_KERO_6     -1
    HDT_QUA_IBOE_KERO_6       COST                     -240  STRM_QUA_IBOE_KERO_6     -1
    HDT_QUA_IBOE_KERO_6       TSTRM_QUA_IBOE_KERO_6    1  HDTCAP_6                 1
    BL_QUA_IBOE_KERO_GASOLINE_6  STRM_QUA_IBOE_KERO_6     -1  PBAL_GASOLINE_6          1
    BL_QUA_IBOE_KERO_GASOLINE_6  QUAL_GASOLINE_6          145
    BL_QUA_IBOE_KERO_JET_6    STRM_QUA_IBOE_KERO_6     -1  PBAL_JET_6               1
    BL_QUA_IBOE_KERO_JET_6    QUAL_JET_6               -2305
    BL_QUA_IBOE_KERO_DIESEL_P_6  STRM_QUA_IBOE_KERO_6     -1  PBAL_DIESEL_P_6          1
    BL_QUA_IBOE_KERO_DIESEL_P_6  QUAL_DIESEL_P_6          -155
    TSLACK_QUA_IBOE_KERO_6    COST                     -180  TSTRM_QUA_IBOE_KERO_6    -1
    TBL_QUA_IBOE_KERO_GASOLINE_6  TSTRM_QUA_IBOE_KERO_6    -1  PBAL_GASOLINE_6          1
    TBL_QUA_IBOE_KERO_GASOLINE_6  QUAL_GASOLINE_6          -42.2
    TBL_QUA_IBOE_KERO_JET_6   TSTRM_QUA_IBOE_KERO_6    -1  PBAL_JET_6               1
    TBL_QUA_IBOE_KERO_JET_6   QUAL_JET_6               -2492.2
    TBL_QUA_IBOE_KERO_DIESEL_P_6  TSTRM_QUA_IBOE_KERO_6    -1  PBAL_DIESEL_P_6          1
    TBL_QUA_IBOE_KERO_DIESEL_P_6  QUAL_DIESEL_P_6          -342.2
    SLACK_QUA_IBOE_DIESEL_6   COST                     -180  STRM_QUA_IBOE_DIESEL_6   -1
    HDT_QUA_IBOE_DIESEL_6     COST                     -240  STRM_QUA_IBOE_DIESEL_6   -1
    HDT_QUA_IBOE_DIESEL_6     TSTRM_QUA_IBOE_DIESEL_6  1  HDTCAP_6                 1
    BL_QUA_IBOE_DIESEL_DIESEL_P_6  STRM_QUA_IBOE_DIESEL_6   -1  PBAL_DIESEL_P_6          1
    BL_QUA_IBOE_DIESEL_DIESEL_P_6  QUAL_DIESEL_P_6          365
    BL_QUA_IBOE_DIESEL_FUELOIL_6  STRM_QUA_IBOE_DIESEL_6   -1  PBAL_FUELOIL_6           1
    BL_QUA_IBOE_DIESEL_FUELOIL_6  QUAL_FUELOIL_6           -34285
    TSLACK_QUA_IBOE_DIESEL_6  COST                     -180  TSTRM_QUA_IBOE_DIESEL_6  -1
    TBL_QUA_IBOE_DIESEL_DIESEL_P_6  TSTRM_QUA_IBOE_DIESEL_6  -1  PBAL_DIESEL_P_6          1
    TBL_QUA_IBOE_DIESEL_DIESEL_P_6  QUAL_DIESEL_P_6          -321.4
    TBL_QUA_IBOE_DIESEL_FUELOIL_6  TSTRM_QUA_IBOE_DIESEL_6  -1  PBAL_FUELOIL_6           1
    TBL_QUA_IBOE_DIESEL_FUELOIL_6  QUAL_FUELOIL_6           -34971.4
    SLACK_QUA_IBOE_VGO_6      COST                     -180  STRM_QUA_IBOE_VGO_6      -1
    HDT_QUA_IBOE_VGO_6        COST                     -240  STRM_QUA_IBOE_VGO_6      -1
    HDT_QUA_IBOE_VGO_6        TSTRM_QUA_IBOE_VGO_6     1  HDTCAP_6                 1
    FCC_QUA_IBOE_6            COST                     -310  STRM_QUA_IBOE_VGO_6      -1
    FCC_QUA_IBOE_6            FSTRM_QUA_IBOE_NAPHTHA_6 0.55  FSTRM_QUA_IBOE_DIESEL_6  0.25
    FCC_QUA_IBOE_6            FCCCAP_6                 1
    BL_QUA_IBOE_VGO_DIESEL_P_6  STRM_QUA_IBOE_VGO_6      -1  PBAL_DIESEL_P_6          1
    BL_QUA_IBOE_VGO_DIESEL_P_6  QUAL_DIESEL_P_6          1405
    BL_QUA_IBOE_VGO_FUELOIL_6  STRM_QUA_IBOE_VGO_6      -1  PBAL_FUELOIL_6           1
    BL_QUA_IBOE_VGO_FUELOIL_6  QUAL_FUELOIL_6           -33245
    TSLACK_QUA_IBOE_VGO_6     COST                     -180  TSTRM_QUA_IBOE_VGO_6     -1
    TBL_QUA_IBOE_VGO_DIESEL_P_6  TSTRM_QUA_IBOE_VGO_6     -1  PBAL_DIESEL_P_6          1
    TBL_QUA_IBOE_VGO_DIESEL_P_6  QUAL_DIESEL_P_6          -279.8
    TBL_QUA_IBOE_VGO_FUELOIL_6  TSTRM_QUA_IBOE_VGO_6     -1  PBAL_FUELOIL_6           1
    TBL_QUA_IBOE_VGO_FUELOIL_6  QUAL_FUELOIL_6           -34929.8
    SLACK_QUA_IBOE_RESIDUE_6  COST                     -180  STRM_QUA_IBOE_RESIDUE_6  -1
    HDT_QUA_IBOE_RESIDUE_6    COST                     -240  STRM_QUA_IBOE_RESIDUE_6  -1
    HDT_QUA_IBOE_RESIDUE_6    TSTRM_QUA_IBOE_RESIDUE_6 1  HDTCAP_6                 1
    BL_QUA_IBOE_RESIDUE_FUELOIL_6  STRM_QUA_IBOE_RESIDUE_6  -1  PBAL_FUELOIL_6           1
    BL_QUA_IBOE_RESIDUE_FUELOIL_6  QUAL_FUELOIL_6           -31620
    TSLACK_QUA_IBOE_RESIDUE_6  COST                     -180  TSTRM_QUA_IBOE_RESIDUE_6 -1
    TBL_QUA_IBOE_RESIDUE_FUELOIL_6  TSTRM_QUA_IBOE_RESIDUE_6 -1  PBAL_FUELOIL_6           1
    TBL_QUA_IBOE_RESIDUE_FUELOIL_6  QUAL_FUELOIL_6           -34864.8
    FSLACK_QUA_IBOE_NAPHTHA_6  COST                     -180  FSTRM_QUA_IBOE_NAPHTHA_6 -1
    FBL_QUA_IBOE_NAPHTHA_GASOLINE_6  FSTRM_QUA_IBOE_NAPHTHA_6 -1  PBAL_GASOLINE_6          1
    FBL_QUA_IBOE_NAPHTHA_GASOLINE_6  QUAL_GASOLINE_6          -40.9
    FBL_QUA_IBOE_NAPHTHA_JET_6  FSTRM_QUA_IBOE_NAPHTHA_6 -1  PBAL_JET_6               1
    FBL_QUA_IBOE_NAPHTHA_JET_6  QUAL_JET_6               -2490.9
    FSLACK_QUA_IBOE_DIESEL_6  COST                     -180  FSTRM_QUA_IBOE_DIESEL_6  -1
    FBL_QUA_IBOE_DIESEL_DIESEL_P_6  FSTRM_QUA_IBOE_DIESEL_6  -1  PBAL_DIESEL_P_6          1
    FBL_QUA_IBOE_DIESEL_DIESEL_P_6  QUAL_DIESEL_P_6          -99.75
    FBL_QUA_IBOE_DIESEL_FUELOIL_6  FSTRM_QUA_IBOE_DIESEL_6  -1  PBAL_FUELOIL_6           1
    FBL_QUA_IBOE_DIESEL_FUELOIL_6  QUAL_FUELOIL_6           -34749.75
    SELL_GASOLINE_6           COST                     9250  PBAL_GASOLINE_6          -1
    SELL_JET_6                COST                     8900  PBAL_JET_6               -1
    SELL_DIESEL_P_6           COST                     8600  PBAL_DIESEL_P_6          -1
    SELL_FUELOIL_6            COST                     4900  PBAL_FUELOIL_6           -1
    BUY_BOMBAY_HIGH_7         COST                     -6850  CBAL_BOMBAY_HIGH_7       1
    INVC_BOMBAY_HIGH_7        COST                     -82.2  CBAL_BOMBAY_HIGH_7       -1
    INVC_BOMBAY_HIGH_7        CBAL_BOMBAY_HIGH_8       1
    CHG_BOMBAY_HIGH_7         COST                     -145  CBAL_BOMBAY_HIGH_7       -1
    CHG_BOMBAY_HIGH_7         CDUCAP_7                 1  STRM_BOMBAY_HIGH_NAPHTHA_7 0.26
    CHG_BOMBAY_HIGH_7         STRM_BOMBAY_HIGH_KERO_7  0.18  STRM_BOMBAY_HIGH_DIESEL_7 0.24
    CHG_BOMBAY_HIGH_7         STRM_BOMBAY_HIGH_VGO_7   0.2  STRM_BOMBAY_HIGH_RESIDUE_7 0.12
    SLACK_BOMBAY_HIGH_NAPHTHA_7  COST                     -180  STRM_BOMBAY_HIGH_NAPHTHA_7 -1
    HDT_BOMBAY_HIGH_NAPHTHA_7  COST                     -240  STRM_BOMBAY_HIGH_NAPHTHA_7 -1
    HDT_BOMBAY_HIGH_NAPHTHA_7  TSTRM_BOMBAY_HIGH_NAPHTHA_7 1  HDTCAP_7                 1
    BL_BOMBAY_HIGH_NAPHTHA_GASOLINE_7  STRM_BOMBAY_HIGH_NAPHTHA_7 -1  PBAL_GASOLINE_7          1
    BL_BOMBAY_HIGH_NAPHTHA_GASOLINE_7  QUAL_GASOLINE_7          -32
    BL_BOMBAY_HIGH_NAPHTHA_JET_7  STRM_BOMBAY_HIGH_NAPHTHA_7 -1  PBAL_JET_7               1
    BL_BOMBAY_HIGH_NAPHTHA_JET_7  QUAL_JET_7               -2482
    TSLACK_BOMBAY_HIGH_NAPHTHA_7  COST                     -180  TSTRM_BOMBAY_HIGH_NAPHTHA_7 -1
    TBL_BOMBAY_HIGH_NAPHTHA_GASOLINE_7  TSTRM_BOMBAY_HIGH_NAPHTHA_7 -1  PBAL_GASOLINE_7          1
    TBL_BOMBAY_HIGH_NAPHTHA_GASOLINE_7  QUAL_GASOLINE_7          -49.28
    TBL_BOMBAY_HIGH_NAPHTHA_JET_7  TSTRM_BOMBAY_HIGH_NAPHTHA_7 -1  PBAL_JET_7               1
    TBL_BOMBAY_HIGH_NAPHTHA_JET_7  QUAL_JET_7               -2499.28
    SLACK_BOMBAY_HIGH_KERO_7  COST                     -180  STRM_BOMBAY_HIGH_KERO_7  -1
    HDT_BOMBAY_HIGH_KERO_7    COST                     -240  STRM_BOMBAY_HIGH_KERO_7  -1
    HDT_BOMBAY_HIGH_KERO_7    TSTRM_BOMBAY_HIGH_KERO_7 1  HDTCAP_7                 1
    BL_BOMBAY_HIGH_KERO_GASOLINE_7  STRM_BOMBAY_HIGH_KERO_7  -1  PBAL_GASOLINE_7          1
    BL_BOMBAY_HIGH_KERO_GASOLINE_7  QUAL_GASOLINE_7          85
    BL_BOMBAY_HIGH_KERO_JET_7  STRM_BOMBAY_HIGH_KERO_7  -1  PBAL_JET_7               1
    BL_BOMBAY_HIGH_KERO_JET_7  QUAL_JET_7               -2365
    BL_BOMBAY_HIGH_KERO_DIESEL_P_7  STRM_BOMBAY_HIGH_KERO_7  -1  PBAL_DIESEL_P_7          1
    BL_BOMBAY_HIGH_KERO_DIESEL_P_7  QUAL_DIESEL_P_7          -215
    TSLACK_BOMBAY_HIGH_KERO_7  COST                     -180  TSTRM_BOMBAY_HIGH_KERO_7 -1
    TBL_BOMBAY_HIGH_KERO_GASOLINE_7  TSTRM_BOMBAY_HIGH_KERO_7 -1  PBAL_GASOLINE_7          1
    TBL_BOMBAY_HIGH_KERO_GASOLINE_7  QUAL_GASOLINE_7          -44.6
    TBL_BOMBAY_HIGH_KERO_JET_7  TSTRM_BOMBAY_HIGH_KERO_7 -1  PBAL_JET_7               1
    TBL_BOMBAY_HIGH_KERO_JET_7  QUAL_JET_7               -2494.6
    TBL_BOMBAY_HIGH_KERO_DIESEL_P_7  TSTRM_BOMBAY_HIGH_KERO_7 -1  PBAL_DIESEL_P_7          1
    TBL_BOMBAY_HIGH_KERO_DIESEL_P_7  QUAL_DIESEL_P_7          -344.6
    SLACK_BOMBAY_HIGH_DIESEL_7  COST                     -180  STRM_BOMBAY_HIGH_DIESEL_7 -1
    HDT_BOMBAY_HIGH_DIESEL_7  COST                     -240  STRM_BOMBAY_HIGH_DIESEL_7 -1
    HDT_BOMBAY_HIGH_DIESEL_7  TSTRM_BOMBAY_HIGH_DIESEL_7 1  HDTCAP_7                 1
    BL_BOMBAY_HIGH_DIESEL_DIESEL_P_7  STRM_BOMBAY_HIGH_DIESEL_7 -1  PBAL_DIESEL_P_7          1
    BL_BOMBAY_HIGH_DIESEL_DIESEL_P_7  QUAL_DIESEL_P_7          145
    BL_BOMBAY_HIGH_DIESEL_FUELOIL_7  STRM_BOMBAY_HIGH_DIESEL_7 -1  PBAL_FUELOIL_7           1
    BL_BOMBAY_HIGH_DIESEL_FUELOIL_7  QUAL_FUELOIL_7           -34505
    TSLACK_BOMBAY_HIGH_DIESEL_7  COST                     -180  TSTRM_BOMBAY_HIGH_DIESEL_7 -1
    TBL_BOMBAY_HIGH_DIESEL_DIESEL_P_7  TSTRM_BOMBAY_HIGH_DIESEL_7 -1  PBAL_DIESEL_P_7          1
    TBL_BOMBAY_HIGH_DIESEL_DIESEL_P_7  QUAL_DIESEL_P_7          -330.2
    TBL_BOMBAY_HIGH_DIESEL_FUELOIL_7  TSTRM_BOMBAY_HIGH_DIESEL_7 -1  PBAL_FUELOIL_7           1
    TBL_BOMBAY_HIGH_DIESEL_FUELOIL_7  QUAL_FUELOIL_7           -34980.2
    SLACK_BOMBAY_HIGH_VGO_7   COST                     -180  STRM_BOMBAY_HIGH_VGO_7   -1
    HDT_BOMBAY_HIGH_VGO_7     COST                     -240  STRM_BOMBAY_HIGH_VGO_7   -1
    HDT_BOMBAY_HIGH_VGO_7     TSTRM_BOMBAY_HIGH_VGO_7  1  HDTCAP_7                 1
    FCC_BOMBAY_HIGH_7         COST                     -310  STRM_BOMBAY_HIGH_VGO_7   -1
    FCC_BOMBAY_HIGH_7         FSTRM_BOMBAY_HIGH_NAPHTHA_7 0.55  FSTRM_BOMBAY_HIGH_DIESEL_7 0.25
    FCC_BOMBAY_HIGH_7         FCCCAP_7                 1
    BL_BOMBAY_HIGH_VGO_DIESEL_P_7  STRM_BOMBAY_HIGH_VGO_7   -1  PBAL_DIESEL_P_7          1
    BL_BOMBAY_HIGH_VGO_DIESEL_P_7  QUAL_DIESEL_P_7          865
    BL_BOMBAY_HIGH_VGO_FUELOIL_7  STRM_BOMBAY_HIGH_VGO_7   -1  PBAL_FUELOIL_7           1
    BL_BOMBAY_HIGH_VGO_FUELOIL_7  QUAL_FUELOIL_7           -33785
    TSLACK_BOMBAY_HIGH_VGO_7  COST                     -180  TSTRM_BOMBAY_HIGH_VGO_7  -1
    TBL_BOMBAY_HIGH_VGO_DIESEL_P_7  TSTRM_BOMBAY_HIGH_VGO_7  -1  PBAL_DIESEL_P_7          1
    TBL_BOMBAY_HIGH_VGO_DIESEL_P_7  QUAL_DIESEL_P_7          -301.4
    TBL_BOMBAY_HIGH_VGO_FUELOIL_7  TSTRM_BOMBAY_HIGH_VGO_7  -1  PBAL_FUELOIL_7           1
    TBL_BOMBAY_HIGH_VGO_FUELOIL_7  QUAL_FUELOIL_7           -34951.4
    SLACK_BOMBAY_HIGH_RESIDUE_7  COST                     -180  STRM_BOMBAY_HIGH_RESIDUE_7 -1
    HDT_BOMBAY_HIGH_RESIDUE_7  COST                     -240  STRM_BOMBAY_HIGH_RESIDUE_7 -1
    HDT_BOMBAY_HIGH_RESIDUE_7  TSTRM_BOMBAY_HIGH_RESIDUE_7 1  HDTCAP_7                 1
    BL_BOMBAY_HIGH_RESIDUE_FUELOIL_7  STRM_BOMBAY_HIGH_RESIDUE_7 -1  PBAL_FUELOIL_7           1
    BL_BOMBAY_HIGH_RESIDUE_FUELOIL_7  QUAL_FUELOIL_7           -32660
    TSLACK_BOMBAY_HIGH_RESIDUE_7  COST                     -180  TSTRM_BOMBAY_HIGH_RESIDUE_7 -1
    TBL_BOMBAY_HIGH_RESIDUE_FUELOIL_7  TSTRM_BOMBAY_HIGH_RESIDUE_7 -1  PBAL_FUELOIL_7           1
    TBL_BOMBAY_HIGH_RESIDUE_FUELOIL_7  QUAL_FUELOIL_7           -34906.4
    FSLACK_BOMBAY_HIGH_NAPHTHA_7  COST                     -180  FSTRM_BOMBAY_HIGH_NAPHTHA_7 -1
    FBL_BOMBAY_HIGH_NAPHTHA_GASOLINE_7  FSTRM_BOMBAY_HIGH_NAPHTHA_7 -1  PBAL_GASOLINE_7          1
    FBL_BOMBAY_HIGH_NAPHTHA_GASOLINE_7  QUAL_GASOLINE_7          -43.7
    FBL_BOMBAY_HIGH_NAPHTHA_JET_7  FSTRM_BOMBAY_HIGH_NAPHTHA_7 -1  PBAL_JET_7               1
    FBL_BOMBAY_HIGH_NAPHTHA_JET_7  QUAL_JET_7               -2493.7
    FSLACK_BOMBAY_HIGH_DIESEL_7  COST                     -180  FSTRM_BOMBAY_HIGH_DIESEL_7 -1
    FBL_BOMBAY_HIGH_DIESEL_DIESEL_P_7  FSTRM_BOMBAY_HIGH_DIESEL_7 -1  PBAL_DIESEL_P_7          1
    FBL_BOMBAY_HIGH_DIESEL_DIESEL_P_7  QUAL_DIESEL_P_7          -176.75
    FBL_BOMBAY_HIGH_DIESEL_FUELOIL_7  FSTRM_BOMBAY_HIGH_DIESEL_7 -1  PBAL_FUELOIL_7           1
    FBL_BOMBAY_HIGH_DIESEL_FUELOIL_7  QUAL_FUELOIL_7           -34826.75
    BUY_ARAB_LIGHT_7          COST                     -6420  CBAL_ARAB_LIGHT_7        1
    INVC_ARAB_LIGHT_7         COST                     -77.04  CBAL_ARAB_LIGHT_7        -1
    INVC_ARAB_LIGHT_7         CBAL_ARAB_LIGHT_8        1
    CHG_ARAB_LIGHT_7          COST                     -145  CBAL_ARAB_LIGHT_7        -1
    CHG_ARAB_LIGHT_7          CDUCAP_7                 1  STRM_ARAB_LIGHT_NAPHTHA_7 0.22
    CHG_ARAB_LIGHT_7          STRM_ARAB_LIGHT_KERO_7   0.17  STRM_ARAB_LIGHT_DIESEL_7 0.23
    CHG_ARAB_LIGHT_7          STRM_ARAB_LIGHT_VGO_7    0.22  STRM_ARAB_LIGHT_RESIDUE_7 0.16
    SLACK_ARAB_LIGHT_NAPHTHA_7  COST                     -180  STRM_ARAB_LIGHT_NAPHTHA_7 -1
    HDT_ARAB_LIGHT_NAPHTHA_7  COST                     -240  STRM_ARAB_LIGHT_NAPHTHA_7 -1
    HDT_ARAB_LIGHT_NAPHTHA_7  TSTRM_ARAB_LIGHT_NAPHTHA_7 1  HDTCAP_7                 1
    BL_ARAB_LIGHT_NAPHTHA_GASOLINE_7  STRM_ARAB_LIGHT_NAPHTHA_7 -1  PBAL_GASOLINE_7          1
    BL_ARAB_LIGHT_NAPHTHA_GASOLINE_7  QUAL_GASOLINE_7          330
    BL_ARAB_LIGHT_NAPHTHA_JET_7  STRM_ARAB_LIGHT_NAPHTHA_7 -1  PBAL_JET_7               1
    BL_ARAB_LIGHT_NAPHTHA_JET_7  QUAL_JET_7               -2120
    TSLACK_ARAB_LIGHT_NAPHTHA_7  COST                     -180  TSTRM_ARAB_LIGHT_NAPHTHA_7 -1
    TBL_ARAB_LIGHT_NAPHTHA_GASOLINE_7  TSTRM_ARAB_LIGHT_NAPHTHA_7 -1  PBAL_GASOLINE_7          1
    TBL_ARAB_LIGHT_NAPHTHA_GASOLINE_7  QUAL_GASOLINE_7          -34.8
    TBL_ARAB_LIGHT_NAPHTHA_JET_7  TSTRM_ARAB_LIGHT_NAPHTHA_7 -1  PBAL_JET_7               1
    TBL_ARAB_LIGHT_NAPHTHA_JET_7  QUAL_JET_7               -2484.8
    SLACK_ARAB_LIGHT_KERO_7   COST                     -180  STRM_ARAB_LIGHT_KERO_7   -1
    HDT_ARAB_LIGHT_KERO_7     COST                     -240  STRM_ARAB_LIGHT_KERO_7   -1
    HDT_ARAB_LIGHT_KERO_7     TSTRM_ARAB_LIGHT_KERO_7  1  HDTCAP_7                 1
    BL_ARAB_LIGHT_KERO_GASOLINE_7  STRM_ARAB_LIGHT_KERO_7   -1  PBAL_GASOLINE_7          1
    BL_ARAB_LIGHT_KERO_GASOLINE_7  QUAL_GASOLINE_7          2800
    BL_ARAB_LIGHT_KERO_JET_7  STRM_ARAB_LIGHT_KERO_7   -1  PBAL_JET_7               1
    BL_ARAB_LIGHT_KERO_JET_7  QUAL_JET_7               350
    BL_ARAB_LIGHT_KERO_DIESEL_P_7  STRM_ARAB_LIGHT_KERO_7   -1  PBAL_DIESEL_P_7          1
    BL_ARAB_LIGHT_KERO_DIESEL_P_7  QUAL_DIESEL_P_7          2500
    TSLACK_ARAB_LIGHT_KERO_7  COST                     -180  TSTRM_ARAB_LIGHT_KERO_7  -1
    TBL_ARAB_LIGHT_KERO_GASOLINE_7  TSTRM_ARAB_LIGHT_KERO_7  -1  PBAL_GASOLINE_7          1
    TBL_ARAB_LIGHT_KERO_GASOLINE_7  QUAL_GASOLINE_7          64
    TBL_ARAB_LIGHT_KERO_JET_7  TSTRM_ARAB_LIGHT_KERO_7  -1  PBAL_JET_7               1
    TBL_ARAB_LIGHT_KERO_JET_7  QUAL_JET_7               -2386
    TBL_ARAB_LIGHT_KERO_DIESEL_P_7  TSTRM_ARAB_LIGHT_KERO_7  -1  PBAL_DIESEL_P_7          1
    TBL_ARAB_LIGHT_KERO_DIESEL_P_7  QUAL_DIESEL_P_7          -236
    SLACK_ARAB_LIGHT_DIESEL_7  COST                     -180  STRM_ARAB_LIGHT_DIESEL_7 -1
    HDT_ARAB_LIGHT_DIESEL_7   COST                     -240  STRM_ARAB_LIGHT_DIESEL_7 -1
    HDT_ARAB_LIGHT_DIESEL_7   TSTRM_ARAB_LIGHT_DIESEL_7 1  HDTCAP_7                 1
    BL_ARAB_LIGHT_DIESEL_DIESEL_P_7  STRM_ARAB_LIGHT_DIESEL_7 -1  PBAL_DIESEL_P_7          1
    BL_ARAB_LIGHT_DIESEL_DIESEL_P_7  QUAL_DIESEL_P_7          10100
    BL_ARAB_LIGHT_DIESEL_FUELOIL_7  STRM_ARAB_LIGHT_DIESEL_7 -1  PBAL_FUELOIL_7           1
    BL_ARAB_LIGHT_DIESEL_FUELOIL_7  QUAL_FUELOIL_7           -24550
    TSLACK_ARAB_LIGHT_DIESEL_7  COST                     -180  TSTRM_ARAB_LIGHT_DIESEL_7 -1
    TBL_ARAB_LIGHT_DIESEL_DIESEL_P_7  TSTRM_ARAB_LIGHT_DIESEL_7 -1  PBAL_DIESEL_P_7          1
    TBL_ARAB_LIGHT_DIESEL_DIESEL_P_7  QUAL_DIESEL_P_7          68
    TBL_ARAB_LIGHT_DIESEL_FUELOIL_7  TSTRM_ARAB_LIGHT_DIESEL_7 -1  PBAL_FUELOIL_7           1
    TBL_ARAB_LIGHT_DIESEL_FUELOIL_7  QUAL_FUELOIL_7           -34582
    SLACK_ARAB_LIGHT_VGO_7    COST                     -180  STRM_ARAB_LIGHT_VGO_7    -1
    HDT_ARAB_LIGHT_VGO_7      COST                     -240  STRM_ARAB_LIGHT_VGO_7    -1
    HDT_ARAB_LIGHT_VGO_7      TSTRM_ARAB_LIGHT_VGO_7   1  HDTCAP_7                 1
    FCC_ARAB_LIGHT_7          COST                     -310  STRM_ARAB_LIGHT_VGO_7    -1
    FCC_ARAB_LIGHT_7          FSTRM_ARAB_LIGHT_NAPHTHA_7 0.55  FSTRM_ARAB_LIGHT_DIESEL_7 0.25
    FCC_ARAB_LIGHT_7          FCCCAP_7                 1
    BL_ARAB_LIGHT_VGO_DIESEL_P_7  STRM_ARAB_LIGHT_VGO_7    -1  PBAL_DIESEL_P_7          1
    BL_ARAB_LIGHT_VGO_DIESEL_P_7  QUAL_DIESEL_P_7          25300
    BL_ARAB_LIGHT_VGO_FUELOIL_7  STRM_ARAB_LIGHT_VGO_7    -1  PBAL_FUELOIL_7           1
    BL_ARAB_LIGHT_VGO_FUELOIL_7  QUAL_FUELOIL_7           -9350
    TSLACK_ARAB_LIGHT_VGO_7   COST                     -180  TSTRM_ARAB_LIGHT_VGO_7   -1
    TBL_ARAB_LIGHT_VGO_DIESEL_P_7  TSTRM_ARAB_LIGHT_VGO_7   -1  PBAL_DIESEL_P_7          1
    TBL_ARAB_LIGHT_VGO_DIESEL_P_7  QUAL_DIESEL_P_7          676
    TBL_ARAB_LIGHT_VGO_FUELOIL_7  TSTRM_ARAB_LIGHT_VGO_7   -1  PBAL_FUELOIL_7           1
    TBL_ARAB_LIGHT_VGO_FUELOIL_7  QUAL_FUELOIL_7           -33974
    SLACK_ARAB_LIGHT_RESIDUE_7  COST                     -180  STRM_ARAB_LIGHT_RESIDUE_7 -1
    HDT_ARAB_LIGHT_RESIDUE_7  COST                     -240  STRM_ARAB_LIGHT_RESIDUE_7 -1
    HDT_ARAB_LIGHT_RESIDUE_7  TSTRM_ARAB_LIGHT_RESIDUE_7 1  HDTCAP_7                 1
    BL_ARAB_LIGHT_RESIDUE_FUELOIL_7  STRM_ARAB_LIGHT_RESIDUE_7 -1  PBAL_FUELOIL_7           1
    BL_ARAB_LIGHT_RESIDUE_FUELOIL_7  QUAL_FUELOIL_7           14400
    TSLACK_ARAB_LIGHT_RESIDUE_7  COST                     -180  TSTRM_ARAB_LIGHT_RESIDUE_7 -1
    TBL_ARAB_LIGHT_RESIDUE_FUELOIL_7  TSTRM_ARAB_LIGHT_RESIDUE_7 -1  PBAL_FUELOIL_7           1
    TBL_ARAB_LIGHT_RESIDUE_FUELOIL_7  QUAL_FUELOIL_7           -33024
    FSLACK_ARAB_LIGHT_NAPHTHA_7  COST                     -180  FSTRM_ARAB_LIGHT_NAPHTHA_7 -1
    FBL_ARAB_LIGHT_NAPHTHA_GASOLINE_7  FSTRM_ARAB_LIGHT_NAPHTHA_7 -1  PBAL_GASOLINE_7          1
    FBL_ARAB_LIGHT_NAPHTHA_GASOLINE_7  QUAL_GASOLINE_7          83
    FBL_ARAB_LIGHT_NAPHTHA_JET_7  FSTRM_ARAB_LIGHT_NAPHTHA_7 -1  PBAL_JET_7               1
    FBL_ARAB_LIGHT_NAPHTHA_JET_7  QUAL_JET_7               -2367
    FSLACK_ARAB_LIGHT_DIESEL_7  COST                     -180  FSTRM_ARAB_LIGHT_DIESEL_7 -1
    FBL_ARAB_LIGHT_DIESEL_DIESEL_P_7  FSTRM_ARAB_LIGHT_DIESEL_7 -1  PBAL_DIESEL_P_7          1
    FBL_ARAB_LIGHT_DIESEL_DIESEL_P_7  QUAL_DIESEL_P_7          3307.5
    FBL_ARAB_LIGHT_DIESEL_FUELOIL_7  FSTRM_ARAB_LIGHT_DIESEL_7 -1  PBAL_FUELOIL_7           1
    FBL_ARAB_LIGHT_DIESEL_FUELOIL_7  QUAL_FUELOIL_7           -31342.5
    BUY_ARAB_HEAVY_7          COST                     -5980  CBAL_ARAB_HEAVY_7        1
    INVC_ARAB_HEAVY_7         COST                     -71.76  CBAL_ARAB_HEAVY_7        -1
    INVC_ARAB_HEAVY_7         CBAL_ARAB_HEAVY_8        1
    CHG_ARAB_HEAVY_7          COST                     -145  CBAL_ARAB_HEAVY_7        -1
    CHG_ARAB_HEAVY_7          CDUCAP_7                 1  STRM_ARAB_HEAVY_NAPHTHA_7 0.16
    CHG_ARAB_HEAVY_7          STRM_ARAB_HEAVY_KERO_7   0.14  STRM_ARAB_HEAVY_DIESEL_7 0.21
    CHG_ARAB_HEAVY_7          STRM_ARAB_HEAVY_VGO_7    0.25  STRM_ARAB_HEAVY_RESIDUE_7 0.24
    SLACK_ARAB_HEAVY_NAPHTHA_7  COST                     -180  STRM_ARAB_HEAVY_NAPHTHA_7 -1
    HDT_ARAB_HEAVY_NAPHTHA_7  COST                     -240  STRM_ARAB_HEAVY_NAPHTHA_7 -1
    HDT_ARAB_HEAVY_NAPHTHA_7  TSTRM_ARAB_HEAVY_NAPHTHA_7 1  HDTCAP_7                 1
    BL_ARAB_HEAVY_NAPHTHA_GASOLINE_7  STRM_ARAB_HEAVY_NAPHTHA_7 -1  PBAL_GASOLINE_7          1
    BL_ARAB_HEAVY_NAPHTHA_GASOLINE_7  QUAL_GASOLINE_7          530
    BL_ARAB_HEAVY_NAPHTHA_JET_7  STRM_ARAB_HEAVY_NAPHTHA_7 -1  PBAL_JET_7               1
    BL_ARAB_HEAVY_NAPHTHA_JET_7  QUAL_JET_7               -1920
    TSLACK_ARAB_HEAVY_NAPHTHA_7  COST                     -180  TSTRM_ARAB_HEAVY_NAPHTHA_7 -1
    TBL_ARAB_HEAVY_NAPHTHA_GASOLINE_7  TSTRM_ARAB_HEAVY_NAPHTHA_7 -1  PBAL_GASOLINE_7          1
    TBL_ARAB_HEAVY_NAPHTHA_GASOLINE_7  QUAL_GASOLINE_7          -26.8
    TBL_ARAB_HEAVY_NAPHTHA_JET_7  TSTRM_ARAB_HEAVY_NAPHTHA_7 -1  PBAL_JET_7               1
    TBL_ARAB_HEAVY_NAPHTHA_JET_7  QUAL_JET_7               -2476.8
    SLACK_ARAB_HEAVY_KERO_7   COST                     -180  STRM_ARAB_HEAVY_KERO_7   -1
    HDT_ARAB_HEAVY_KERO_7     COST                     -240  STRM_ARAB_HEAVY_KERO_7   -1
    HDT_ARAB_HEAVY_KERO_7     TSTRM_ARAB_HEAVY_KERO_7  1  HDTCAP_7                 1
    BL_ARAB_HEAVY_KERO_GASOLINE_7  STRM_ARAB_HEAVY_KERO_7   -1  PBAL_GASOLINE_7          1
    BL_ARAB_HEAVY_KERO_GASOLINE_7  QUAL_GASOLINE_7          4300
    BL_ARAB_HEAVY_KERO_JET_7  STRM_ARAB_HEAVY_KERO_7   -1  PBAL_JET_7               1
    BL_ARAB_HEAVY_KERO_JET_7  QUAL_JET_7               1850
    BL_ARAB_HEAVY_KERO_DIESEL_P_7  STRM_ARAB_HEAVY_KERO_7   -1  PBAL_DIESEL_P_7          1
    BL_ARAB_HEAVY_KERO_DIESEL_P_7  QUAL_DIESEL_P_7          4000
    TSLACK_ARAB_HEAVY_KERO_7  COST                     -180  TSTRM_ARAB_HEAVY_KERO_7  -1
    TBL_ARAB_HEAVY_KERO_GASOLINE_7  TSTRM_ARAB_HEAVY_KERO_7  -1  PBAL_GASOLINE_7          1
    TBL_ARAB_HEAVY_KERO_GASOLINE_7  QUAL_GASOLINE_7          124
    TBL_ARAB_HEAVY_KERO_JET_7  TSTRM_ARAB_HEAVY_KERO_7  -1  PBAL_JET_7               1
    TBL_ARAB_HEAVY_KERO_JET_7  QUAL_JET_7               -2326
    TBL_ARAB_HEAVY_KERO_DIESEL_P_7  TSTRM_ARAB_HEAVY_KERO_7  -1  PBAL_DIESEL_P_7          1
    TBL_ARAB_HEAVY_KERO_DIESEL_P_7  QUAL_DIESEL_P_7          -176
    SLACK_ARAB_HEAVY_DIESEL_7  COST                     -180  STRM_ARAB_HEAVY_DIESEL_7 -1
    HDT_ARAB_HEAVY_DIESEL_7   COST                     -240  STRM_ARAB_HEAVY_DIESEL_7 -1
    HDT_ARAB_HEAVY_DIESEL_7   TSTRM_ARAB_HEAVY_DIESEL_7 1  HDTCAP_7                 1
    BL_ARAB_HEAVY_DIESEL_DIESEL_P_7  STRM_ARAB_HEAVY_DIESEL_7 -1  PBAL_DIESEL_P_7          1
    BL_ARAB_HEAVY_DIESEL_DIESEL_P_7  QUAL_DIESEL_P_7          15600
    BL_ARAB_HEAVY_DIESEL_FUELOIL_7  STRM_ARAB_HEAVY_DIESEL_7 -1  PBAL_FUELOIL_7           1
    BL_ARAB_HEAVY_DIESEL_FUELOIL_7  QUAL_FUELOIL_7           -19050
    TSLACK_ARAB_HEAVY_DIESEL_7  COST                     -180  TSTRM_ARAB_HEAVY_DIESEL_7 -1
    TBL_ARAB_HEAVY_DIESEL_DIESEL_P_7  TSTRM_ARAB_HEAVY_DIESEL_7 -1  PBAL_DIESEL_P_7          1
    TBL_ARAB_HEAVY_DIESEL_DIESEL_P_7  QUAL_DIESEL_P_7          288
    TBL_ARAB_HEAVY_DIESEL_FUELOIL_7  TSTRM_ARAB_HEAVY_DIESEL_7 -1  PBAL_FUELOIL_7           1
    TBL_ARAB_HEAVY_DIESEL_FUELOIL_7  QUAL_FUELOIL_7           -34362
    SLACK_ARAB_HEAVY_VGO_7    COST                     -180  STRM_ARAB_HEAVY_VGO_7    -1
    HDT_ARAB_HEAVY_VGO_7      COST                     -240  STRM_ARAB_HEAVY_VGO_7    -1
    HDT_ARAB_HEAVY_VGO_7      TSTRM_ARAB_HEAVY_VGO_7   1  HDTCAP_7                 1
    FCC_ARAB_HEAVY_7          COST                     -310  STRM_ARAB_HEAVY_VGO_7    -1
    FCC_ARAB_HEAVY_7          FSTRM_ARAB_HEAVY_NAPHTHA_7 0.55  FSTRM_ARAB_HEAVY_DIESEL_7 0.25
    FCC_ARAB_HEAVY_7          FCCCAP_7                 1
    BL_ARAB_HEAVY_VGO_DIESEL_P_7  STRM_ARAB_HEAVY_VGO_7    -1  PBAL_DIESEL_P_7          1
    BL_ARAB_HEAVY_VGO_DIESEL_P_7  QUAL_DIESEL_P_7          38800
    BL_ARAB_HEAVY_VGO_FUELOIL_7  STRM_ARAB_HEAVY_VGO_7    -1  PBAL_FUELOIL_7           1
    BL_ARAB_HEAVY_VGO_FUELOIL_7  QUAL_FUELOIL_7           4150
    TSLACK_ARAB_HEAVY_VGO_7   COST                     -180  TSTRM_ARAB_HEAVY_VGO_7   -1
    TBL_ARAB_HEAVY_VGO_DIESEL_P_7  TSTRM_ARAB_HEAVY_VGO_7   -1  PBAL_DIESEL_P_7          1
    TBL_ARAB_HEAVY_VGO_DIESEL_P_7  QUAL_DIESEL_P_7          1216
    TBL_ARAB_HEAVY_VGO_FUELOIL_7  TSTRM_ARAB_HEAVY_VGO_7   -1  PBAL_FUELOIL_7           1
    TBL_ARAB_HEAVY_VGO_FUELOIL_7  QUAL_FUELOIL_7           -33434
    SLACK_ARAB_HEAVY_RESIDUE_7  COST                     -180  STRM_ARAB_HEAVY_RESIDUE_7 -1
    HDT_ARAB_HEAVY_RESIDUE_7  COST                     -240  STRM_ARAB_HEAVY_RESIDUE_7 -1
    HDT_ARAB_HEAVY_RESIDUE_7  TSTRM_ARAB_HEAVY_RESIDUE_7 1  HDTCAP_7                 1
    BL_ARAB_HEAVY_RESIDUE_FUELOIL_7  STRM_ARAB_HEAVY_RESIDUE_7 -1  PBAL_FUELOIL_7           1
    BL_ARAB_HEAVY_RESIDUE_FUELOIL_7  QUAL_FUELOIL_7           40400
    TSLACK_ARAB_HEAVY_RESIDUE_7  COST                     -180  TSTRM_ARAB_HEAVY_RESIDUE_7 -1
    TBL_ARAB_HEAVY_RESIDUE_FUELOIL_7  TSTRM_ARAB_HEAVY_RESIDUE_7 -1  PBAL_FUELOIL_7           1
    TBL_ARAB_HEAVY_RESIDUE_FUELOIL_7  QUAL_FUELOIL_7           -31984
    FSLACK_ARAB_HEAVY_NAPHTHA_7  COST                     -180  FSTRM_ARAB_HEAVY_NAPHTHA_7 -1
    FBL_ARAB_HEAVY_NAPHTHA_GASOLINE_7  FSTRM_ARAB_HEAVY_NAPHTHA_7 -1  PBAL_GASOLINE_7          1
    FBL_ARAB_HEAVY_NAPHTHA_GASOLINE_7  QUAL_GASOLINE_7          153
    FBL_ARAB_HEAVY_NAPHTHA_JET_7  FSTRM_ARAB_HEAVY_NAPHTHA_7 -1  PBAL_JET_7               1
    FBL_ARAB_HEAVY_NAPHTHA_JET_7  QUAL_JET_7               -2297
    FSLACK_ARAB_HEAVY_DIESEL_7  COST                     -180  FSTRM_ARAB_HEAVY_DIESEL_7 -1
    FBL_ARAB_HEAVY_DIESEL_DIESEL_P_7  FSTRM_ARAB_HEAVY_DIESEL_7 -1  PBAL_DIESEL_P_7          1
    FBL_ARAB_HEAVY_DIESEL_DIESEL_P_7  QUAL_DIESEL_P_7          5232.5
    FBL_ARAB_HEAVY_DIESEL_FUELOIL_7  FSTRM_ARAB_HEAVY_DIESEL_7 -1  PBAL_FUELOIL_7           1
    FBL_ARAB_HEAVY_DIESEL_FUELOIL_7  QUAL_FUELOIL_7           -29417.5
    BUY_BASRAH_7              COST                     -6100  CBAL_BASRAH_7            1
    INVC_BASRAH_7             COST                     -73.2  CBAL_BASRAH_7            -1
    INVC_BASRAH_7             CBAL_BASRAH_8            1
    CHG_BASRAH_7              COST                     -145  CBAL_BASRAH_7            -1
    CHG_BASRAH_7              CDUCAP_7                 1  STRM_BASRAH_NAPHTHA_7    0.18
    CHG_BASRAH_7              STRM_BASRAH_KERO_7       0.15  STRM_BASRAH_DIESEL_7     0.22
    CHG_BASRAH_7              STRM_BASRAH_VGO_7        0.24  STRM_BASRAH_RESIDUE_7    0.21
    SLACK_BASRAH_NAPHTHA_7    COST                     -180  STRM_BASRAH_NAPHTHA_7    -1
    HDT_BASRAH_NAPHTHA_7      COST                     -240  STRM_BASRAH_NAPHTHA_7    -1
    HDT_BASRAH_NAPHTHA_7      TSTRM_BASRAH_NAPHTHA_7   1  HDTCAP_7                 1
    BL_BASRAH_NAPHTHA_GASOLINE_7  STRM_BASRAH_NAPHTHA_7    -1  PBAL_GASOLINE_7          1
    BL_BASRAH_NAPHTHA_GASOLINE_7  QUAL_GASOLINE_7          440
    BL_BASRAH_NAPHTHA_JET_7   STRM_BASRAH_NAPHTHA_7    -1  PBAL_JET_7               1
    BL_BASRAH_NAPHTHA_JET_7   QUAL_JET_7               -2010
    TSLACK_BASRAH_NAPHTHA_7   COST                     -180  TSTRM_BASRAH_NAPHTHA_7   -1
    TBL_BASRAH_NAPHTHA_GASOLINE_7  TSTRM_BASRAH_NAPHTHA_7   -1  PBAL_GASOLINE_7          1
    TBL_BASRAH_NAPHTHA_GASOLINE_7  QUAL_GASOLINE_7          -30.4
    TBL_BASRAH_NAPHTHA_JET_7  TSTRM_BASRAH_NAPHTHA_7   -1  PBAL_JET_7               1
    TBL_BASRAH_NAPHTHA_JET_7  QUAL_JET_7               -2480.4
    SLACK_BASRAH_KERO_7       COST                     -180  STRM_BASRAH_KERO_7       -1
    HDT_BASRAH_KERO_7         COST                     -240  STRM_BASRAH_KERO_7       -1
    HDT_BASRAH_KERO_7         TSTRM_BASRAH_KERO_7      1  HDTCAP_7                 1
    BL_BASRAH_KERO_GASOLINE_7  STRM_BASRAH_KERO_7       -1  PBAL_GASOLINE_7          1
    BL_BASRAH_KERO_GASOLINE_7  QUAL_GASOLINE_7          3625
    BL_BASRAH_KERO_JET_7      STRM_BASRAH_KERO_7       -1  PBAL_JET_7               1
    BL_BASRAH_KERO_JET_7      QUAL_JET_7               1175
    BL_BASRAH_KERO_DIESEL_P_7  STRM_BASRAH_KERO_7       -1  PBAL_DIESEL_P_7          1
    BL_BASRAH_KERO_DIESEL_P_7  QUAL_DIESEL_P_7          3325
    TSLACK_BASRAH_KERO_7      COST                     -180  TSTRM_BASRAH_KERO_7      -1
    TBL_BASRAH_KERO_GASOLINE_7  TSTRM_BASRAH_KERO_7      -1  PBAL_GASOLINE_7          1
    TBL_BASRAH_KERO_GASOLINE_7  QUAL_GASOLINE_7          97
    TBL_BASRAH_KERO_JET_7     TSTRM_BASRAH_KERO_7      -1  PBAL_JET_7               1
    TBL_BASRAH_KERO_JET_7     QUAL_JET_7               -2353
    TBL_BASRAH_KERO_DIESEL_P_7  TSTRM_BASRAH_KERO_7      -1  PBAL_DIESEL_P_7          1
    TBL_BASRAH_KERO_DIESEL_P_7  QUAL_DIESEL_P_7          -203
    SLACK_BASRAH_DIESEL_7     COST                     -180  STRM_BASRAH_DIESEL_7     -1
    HDT_BASRAH_DIESEL_7       COST                     -240  STRM_BASRAH_DIESEL_7     -1
    HDT_BASRAH_DIESEL_7       TSTRM_BASRAH_DIESEL_7    1  HDTCAP_7                 1
    BL_BASRAH_DIESEL_DIESEL_P_7  STRM_BASRAH_DIESEL_7     -1  PBAL_DIESEL_P_7          1
    BL_BASRAH_DIESEL_DIESEL_P_7  QUAL_DIESEL_P_7          13125
    BL_BASRAH_DIESEL_FUELOIL_7  STRM_BASRAH_DIESEL_7     -1  PBAL_FUELOIL_7           1
    BL_BASRAH_DIESEL_FUELOIL_7  QUAL_FUELOIL_7           -21525
    TSLACK_BASRAH_DIESEL_7    COST                     -180  TSTRM_BASRAH_DIESEL_7    -1
    TBL_BASRAH_DIESEL_DIESEL_P_7  TSTRM_BASRAH_DIESEL_7    -1  PBAL_DIESEL_P_7          1
    TBL_BASRAH_DIESEL_DIESEL_P_7  QUAL_DIESEL_P_7          189
    TBL_BASRAH_DIESEL_FUELOIL_7  TSTRM_BASRAH_DIESEL_7    -1  PBAL_FUELOIL_7           1
    TBL_BASRAH_DIESEL_FUELOIL_7  QUAL_FUELOIL_7           -34461
    SLACK_BASRAH_VGO_7        COST                     -180  STRM_BASRAH_VGO_7        -1
    HDT_BASRAH_VGO_7          COST                     -240  STRM_BASRAH_VGO_7        -1
    HDT_BASRAH_VGO_7          TSTRM_BASRAH_VGO_7       1  HDTCAP_7                 1
    FCC_BASRAH_7              COST                     -310  STRM_BASRAH_VGO_7        -1
    FCC_BASRAH_7              FSTRM_BASRAH_NAPHTHA_7   0.55  FSTRM_BASRAH_DIESEL_7    0.25
    FCC_BASRAH_7              FCCCAP_7                 1
    BL_BASRAH_VGO_DIESEL_P_7  STRM_BASRAH_VGO_7        -1  PBAL_DIESEL_P_7          1
    BL_BASRAH_VGO_DIESEL_P_7  QUAL_DIESEL_P_7          32725
    BL_BASRAH_VGO_FUELOIL_7   STRM_BASRAH_VGO_7        -1  PBAL_FUELOIL_7           1
    BL_BASRAH_VGO_FUELOIL_7   QUAL_FUELOIL_7           -1925
    TSLACK_BASRAH_VGO_7       COST                     -180  TSTRM_BASRAH_VGO_7       -1
    TBL_BASRAH_VGO_DIESEL_P_7  TSTRM_BASRAH_VGO_7       -1  PBAL_DIESEL_P_7          1
    TBL_BASRAH_VGO_DIESEL_P_7  QUAL_DIESEL_P_7          973
    TBL_BASRAH_VGO_FUELOIL_7  TSTRM_BASRAH_VGO_7       -1  PBAL_FUELOIL_7           1
    TBL_BASRAH_VGO_FUELOIL_7  QUAL_FUELOIL_7           -33677
    SLACK_BASRAH_RESIDUE_7    COST                     -180  STRM_BASRAH_RESIDUE_7    -1
    HDT_BASRAH_RESIDUE_7      COST                     -240  STRM_BASRAH_RESIDUE_7    -1
    HDT_BASRAH_RESIDUE_7      TSTRM_BASRAH_RESIDUE_7   1  HDTCAP_7                 1
    BL_BASRAH_RESIDUE_FUELOIL_7  STRM_BASRAH_RESIDUE_7    -1  PBAL_FUELOIL_7           1
    BL_BASRAH_RESIDUE_FUELOIL_7  QUAL_FUELOIL_7           28700
    TSLACK_BASRAH_RESIDUE_7   COST                     -180  TSTRM_BASRAH_RESIDUE_7   -1
    TBL_BASRAH_RESIDUE_FUELOIL_7  TSTRM_BASRAH_RESIDUE_7   -1  PBAL_FUELOIL_7           1
    TBL_BASRAH_RESIDUE_FUELOIL_7  QUAL_FUELOIL_7           -32452
    FSLACK_BASRAH_NAPHTHA_7   COST                     -180  FSTRM_BASRAH_NAPHTHA_7   -1
    FBL_BASRAH_NAPHTHA_GASOLINE_7  FSTRM_BASRAH_NAPHTHA_7   -1  PBAL_GASOLINE_7          1
    FBL_BASRAH_NAPHTHA_GASOLINE_7  QUAL_GASOLINE_7          121.5
    FBL_BASRAH_NAPHTHA_JET_7  FSTRM_BASRAH_NAPHTHA_7   -1  PBAL_JET_7               1
    FBL_BASRAH_NAPHTHA_JET_7  QUAL_JET_7               -2328.5
    FSLACK_BASRAH_DIESEL_7    COST                     -180  FSTRM_BASRAH_DIESEL_7    -1
    FBL_BASRAH_DIESEL_DIESEL_P_7  FSTRM_BASRAH_DIESEL_7    -1  PBAL_DIESEL_P_7          1
    FBL_BASRAH_DIESEL_DIESEL_P_7  QUAL_DIESEL_P_7          4366.25
    FBL_BASRAH_DIESEL_FUELOIL_7  FSTRM_BASRAH_DIESEL_7    -1  PBAL_FUELOIL_7           1
    FBL_BASRAH_DIESEL_FUELOIL_7  QUAL_FUELOIL_7           -30283.75
    BUY_URALS_7               COST                     -6260  CBAL_URALS_7             1
    INVC_URALS_7              COST                     -75.12  CBAL_URALS_7             -1
    INVC_URALS_7              CBAL_URALS_8             1
    CHG_URALS_7               COST                     -145  CBAL_URALS_7             -1
    CHG_URALS_7               CDUCAP_7                 1  STRM_URALS_NAPHTHA_7     0.2
    CHG_URALS_7               STRM_URALS_KERO_7        0.16  STRM_URALS_DIESEL_7      0.24
    CHG_URALS_7               STRM_URALS_VGO_7         0.23  STRM_URALS_RESIDUE_7     0.17
    SLACK_URALS_NAPHTHA_7     COST                     -180  STRM_URALS_NAPHTHA_7     -1
    HDT_URALS_NAPHTHA_7       COST                     -240  STRM_URALS_NAPHTHA_7     -1
    HDT_URALS_NAPHTHA_7       TSTRM_URALS_NAPHTHA_7    1  HDTCAP_7                 1
    BL_URALS_NAPHTHA_GASOLINE_7  STRM_URALS_NAPHTHA_7     -1  PBAL_GASOLINE_7          1
    BL_URALS_NAPHTHA_GASOLINE_7  QUAL_GASOLINE_7          226
    BL_URALS_NAPHTHA_JET_7    STRM_URALS_NAPHTHA_7     -1  PBAL_JET_7               1
    BL_URALS_NAPHTHA_JET_7    QUAL_JET_7               -2224
    TSLACK_URALS_NAPHTHA_7    COST                     -180  TSTRM_URALS_NAPHTHA_7    -1
    TBL_URALS_NAPHTHA_GASOLINE_7  TSTRM_URALS_NAPHTHA_7    -1  PBAL_GASOLINE_7          1
    TBL_URALS_NAPHTHA_GASOLINE_7  QUAL_GASOLINE_7          -38.96
    TBL_URALS_NAPHTHA_JET_7   TSTRM_URALS_NAPHTHA_7    -1  PBAL_JET_7               1
    TBL_URALS_NAPHTHA_JET_7   QUAL_JET_7               -2488.96
    SLACK_URALS_KERO_7        COST                     -180  STRM_URALS_KERO_7        -1
    HDT_URALS_KERO_7          COST                     -240  STRM_URALS_KERO_7        -1
    HDT_URALS_KERO_7          TSTRM_URALS_KERO_7       1  HDTCAP_7                 1
    BL_URALS_KERO_GASOLINE_7  STRM_URALS_KERO_7        -1  PBAL_GASOLINE_7          1
    BL_URALS_KERO_GASOLINE_7  QUAL_GASOLINE_7          2020
    BL_URALS_KERO_JET_7       STRM_URALS_KERO_7        -1  PBAL_JET_7               1
    BL_URALS_KERO_JET_7       QUAL_JET_7               -430
    BL_URALS_KERO_DIESEL_P_7  STRM_URALS_KERO_7        -1  PBAL_DIESEL_P_7          1
    BL_URALS_KERO_DIESEL_P_7  QUAL_DIESEL_P_7          1720
    TSLACK_URALS_KERO_7       COST                     -180  TSTRM_URALS_KERO_7       -1
    TBL_URALS_KERO_GASOLINE_7  TSTRM_URALS_KERO_7       -1  PBAL_GASOLINE_7          1
    TBL_URALS_KERO_GASOLINE_7  QUAL_GASOLINE_7          32.8
    TBL_URALS_KERO_JET_7      TSTRM_URALS_KERO_7       -1  PBAL_JET_7               1
    TBL_URALS_KERO_JET_7      QUAL_JET_7               -2417.2
    TBL_URALS_KERO_DIESEL_P_7  TSTRM_URALS_KERO_7       -1  PBAL_DIESEL_P_7          1
    TBL_URALS_KERO_DIESEL_P_7  QUAL_DIESEL_P_7          -267.2
    SLACK_URALS_DIESEL_7      COST                     -180  STRM_URALS_DIESEL_7      -1
    HDT_URALS_DIESEL_7        COST                     -240  STRM_URALS_DIESEL_7      -1
    HDT_URALS_DIESEL_7        TSTRM_URALS_DIESEL_7     1  HDTCAP_7                 1
    BL_URALS_DIESEL_DIESEL_P_7  STRM_URALS_DIESEL_7      -1  PBAL_DIESEL_P_7          1
    BL_URALS_DIESEL_DIESEL_P_7  QUAL_DIESEL_P_7          7240
    BL_URALS_DIESEL_FUELOIL_7  STRM_URALS_DIESEL_7      -1  PBAL_FUELOIL_7           1
    BL_URALS_DIESEL_FUELOIL_7  QUAL_FUELOIL_7           -27410
    TSLACK_URALS_DIESEL_7     COST                     -180  TSTRM_URALS_DIESEL_7     -1
    TBL_URALS_DIESEL_DIESEL_P_7  TSTRM_URALS_DIESEL_7     -1  PBAL_DIESEL_P_7          1
    TBL_URALS_DIESEL_DIESEL_P_7  QUAL_DIESEL_P_7          -46.4
    TBL_URALS_DIESEL_FUELOIL_7  TSTRM_URALS_DIESEL_7     -1  PBAL_FUELOIL_7           1
    TBL_URALS_DIESEL_FUELOIL_7  QUAL_FUELOIL_7           -34696.4
    SLACK_URALS_VGO_7         COST                     -180  STRM_URALS_VGO_7         -1
    HDT_URALS_VGO_7           COST                     -240  STRM_URALS_VGO_7         -1
    HDT_URALS_VGO_7           TSTRM_URALS_VGO_7        1  HDTCAP_7                 1
    FCC_URALS_7               COST                     -310  STRM_URALS_VGO_7         -1
    FCC_URALS_7               FSTRM_URALS_NAPHTHA_7    0.55  FSTRM_URALS_DIESEL_7     0.25
    FCC_URALS_7               FCCCAP_7                 1
    BL_URALS_VGO_DIESEL_P_7   STRM_URALS_VGO_7         -1  PBAL_DIESEL_P_7          1
    BL_URALS_VGO_DIESEL_P_7   QUAL_DIESEL_P_7          18280
    BL_URALS_VGO_FUELOIL_7    STRM_URALS_VGO_7         -1  PBAL_FUELOIL_7           1
    BL_URALS_VGO_FUELOIL_7    QUAL_FUELOIL_7           -16370
    TSLACK_URALS_VGO_7        COST                     -180  TSTRM_URALS_VGO_7        -1
    TBL_URALS_VGO_DIESEL_P_7  TSTRM_URALS_VGO_7        -1  PBAL_DIESEL_P_7          1
    TBL_URALS_VGO_DIESEL_P_7  QUAL_DIESEL_P_7          395.2
    TBL_URALS_VGO_FUELOIL_7   TSTRM_URALS_VGO_7        -1  PBAL_FUELOIL_7           1
    TBL_URALS_VGO_FUELOIL_7   QUAL_FUELOIL_7           -34254.8
    SLACK_URALS_RESIDUE_7     COST                     -180  STRM_URALS_RESIDUE_7     -1
    HDT_URALS_RESIDUE_7       COST                     -240  STRM_URALS_RESIDUE_7     -1
    HDT_URALS_RESIDUE_7       TSTRM_URALS_RESIDUE_7    1  HDTCAP_7                 1
    BL_URALS_RESIDUE_FUELOIL_7  STRM_URALS_RESIDUE_7     -1  PBAL_FUELOIL_7           1
    BL_URALS_RESIDUE_FUELOIL_7  QUAL_FUELOIL_7           880
    TSLACK_URALS_RESIDUE_7    COST                     -180  TSTRM_URALS_RESIDUE_7    -1
    TBL_URALS_RESIDUE_FUELOIL_7  TSTRM_URALS_RESIDUE_7    -1  PBAL_FUELOIL_7           1
    TBL_URALS_RESIDUE_FUELOIL_7  QUAL_FUELOIL_7           -33564.8
    FSLACK_URALS_NAPHTHA_7    COST                     -180  FSTRM_URALS_NAPHTHA_7    -1
    FBL_URALS_NAPHTHA_GASOLINE_7  FSTRM_URALS_NAPHTHA_7    -1  PBAL_GASOLINE_7          1
    FBL_URALS_NAPHTHA_GASOLINE_7  QUAL_GASOLINE_7          46.6
    FBL_URALS_NAPHTHA_JET_7   FSTRM_URALS_NAPHTHA_7    -1  PBAL_JET_7               1
    FBL_URALS_NAPHTHA_JET_7   QUAL_JET_7               -2403.4
    FSLACK_URALS_DIESEL_7     COST                     -180  FSTRM_URALS_DIESEL_7     -1
    FBL_URALS_DIESEL_DIESEL_P_7  FSTRM_URALS_DIESEL_7     -1  PBAL_DIESEL_P_7          1
    FBL_URALS_DIESEL_DIESEL_P_7  QUAL_DIESEL_P_7          2306.5
    FBL_URALS_DIESEL_FUELOIL_7  FSTRM_URALS_DIESEL_7     -1  PBAL_FUELOIL_7           1
    FBL_URALS_DIESEL_FUELOIL_7  QUAL_FUELOIL_7           -32343.5
    BUY_MURBAN_7              COST                     -6980  CBAL_MURBAN_7            1
    INVC_MURBAN_7             COST                     -83.76  CBAL_MURBAN_7            -1
    INVC_MURBAN_7             CBAL_MURBAN_8            1
    CHG_MURBAN_7              COST                     -145  CBAL_MURBAN_7            -1
    CHG_MURBAN_7              CDUCAP_7                 1  STRM_MURBAN_NAPHTHA_7    0.28
    CHG_MURBAN_7              STRM_MURBAN_KERO_7       0.19  STRM_MURBAN_DIESEL_7     0.23
    CHG_MURBAN_7              STRM_MURBAN_VGO_7        0.19  STRM_MURBAN_RESIDUE_7    0.11
    SLACK_MURBAN_NAPHTHA_7    COST                     -180  STRM_MURBAN_NAPHTHA_7    -1
    HDT_MURBAN_NAPHTHA_7      COST                     -240  STRM_MURBAN_NAPHTHA_7    -1
    HDT_MURBAN_NAPHTHA_7      TSTRM_MURBAN_NAPHTHA_7   1  HDTCAP_7                 1
    BL_MURBAN_NAPHTHA_GASOLINE_7  STRM_MURBAN_NAPHTHA_7    -1  PBAL_GASOLINE_7          1
    BL_MURBAN_NAPHTHA_GASOLINE_7  QUAL_GASOLINE_7          98
    BL_MURBAN_NAPHTHA_JET_7   STRM_MURBAN_NAPHTHA_7    -1  PBAL_JET_7               1
    BL_MURBAN_NAPHTHA_JET_7   QUAL_JET_7               -2352
    TSLACK_MURBAN_NAPHTHA_7   COST                     -180  TSTRM_MURBAN_NAPHTHA_7   -1
    TBL_MURBAN_NAPHTHA_GASOLINE_7  TSTRM_MURBAN_NAPHTHA_7   -1  PBAL_GASOLINE_7          1
    TBL_MURBAN_NAPHTHA_GASOLINE_7  QUAL_GASOLINE_7          -44.08
    TBL_MURBAN_NAPHTHA_JET_7  TSTRM_MURBAN_NAPHTHA_7   -1  PBAL_JET_7               1
    TBL_MURBAN_NAPHTHA_JET_7  QUAL_JET_7               -2494.08
    SLACK_MURBAN_KERO_7       COST                     -180  STRM_MURBAN_KERO_7       -1
    HDT_MURBAN_KERO_7         COST                     -240  STRM_MURBAN_KERO_7       -1
    HDT_MURBAN_KERO_7         TSTRM_MURBAN_KERO_7      1  HDTCAP_7                 1
    BL_MURBAN_KERO_GASOLINE_7  STRM_MURBAN_KERO_7       -1  PBAL_GASOLINE_7          1
    BL_MURBAN_KERO_GASOLINE_7  QUAL_GASOLINE_7          1060
    BL_MURBAN_KERO_JET_7      STRM_MURBAN_KERO_7       -1  PBAL_JET_7               1
    BL_MURBAN_KERO_JET_7      QUAL_JET_7               -1390
    BL_MURBAN_KERO_DIESEL_P_7  STRM_MURBAN_KERO_7       -1  PBAL_DIESEL_P_7          1
    BL_MURBAN_KERO_DIESEL_P_7  QUAL_DIESEL_P_7          760
    TSLACK_MURBAN_KERO_7      COST                     -180  TSTRM_MURBAN_KERO_7      -1
    TBL_MURBAN_KERO_GASOLINE_7  TSTRM_MURBAN_KERO_7      -1  PBAL_GASOLINE_7          1
    TBL_MURBAN_KERO_GASOLINE_7  QUAL_GASOLINE_7          -5.6
    TBL_MURBAN_KERO_JET_7     TSTRM_MURBAN_KERO_7      -1  PBAL_JET_7               1
    TBL_MURBAN_KERO_JET_7     QUAL_JET_7               -2455.6
    TBL_MURBAN_KERO_DIESEL_P_7  TSTRM_MURBAN_KERO_7      -1  PBAL_DIESEL_P_7          1
    TBL_MURBAN_KERO_DIESEL_P_7  QUAL_DIESEL_P_7          -305.6
    SLACK_MURBAN_DIESEL_7     COST                     -180  STRM_MURBAN_DIESEL_7     -1
    HDT_MURBAN_DIESEL_7       COST                     -240  STRM_MURBAN_DIESEL_7     -1
    HDT_MURBAN_DIESEL_7       TSTRM_MURBAN_DIESEL_7    1  HDTCAP_7                 1
    BL_MURBAN_DIESEL_DIESEL_P_7  STRM_MURBAN_DIESEL_7     -1  PBAL_DIESEL_P_7          1
    BL_MURBAN_DIESEL_DIESEL_P_7  QUAL_DIESEL_P_7          3720
    BL_MURBAN_DIESEL_FUELOIL_7  STRM_MURBAN_DIESEL_7     -1  PBAL_FUELOIL_7           1
    BL_MURBAN_DIESEL_FUELOIL_7  QUAL_FUELOIL_7           -30930
    TSLACK_MURBAN_DIESEL_7    COST                     -180  TSTRM_MURBAN_DIESEL_7    -1
    TBL_MURBAN_DIESEL_DIESEL_P_7  TSTRM_MURBAN_DIESEL_7    -1  PBAL_DIESEL_P_7          1
    TBL_MURBAN_DIESEL_DIESEL_P_7  QUAL_DIESEL_P_7          -187.2
    TBL_MURBAN_DIESEL_FUELOIL_7  TSTRM_MURBAN_DIESEL_7    -1  PBAL_FUELOIL_7           1
    TBL_MURBAN_DIESEL_FUELOIL_7  QUAL_FUELOIL_7           -34837.2
    SLACK_MURBAN_VGO_7        COST                     -180  STRM_MURBAN_VGO_7        -1
    HDT_MURBAN_VGO_7          COST                     -240  STRM_MURBAN_VGO_7        -1
    HDT_MURBAN_VGO_7          TSTRM_MURBAN_VGO_7       1  HDTCAP_7                 1
    FCC_MURBAN_7              COST                     -310  STRM_MURBAN_VGO_7        -1
    FCC_MURBAN_7              FSTRM_MURBAN_NAPHTHA_7   0.55  FSTRM_MURBAN_DIESEL_7    0.25
    FCC_MURBAN_7              FCCCAP_7                 1
    BL_MURBAN_VGO_DIESEL_P_7  STRM_MURBAN_VGO_7        -1  PBAL_DIESEL_P_7          1
    BL_MURBAN_VGO_DIESEL_P_7  QUAL_DIESEL_P_7          9640
    BL_MURBAN_VGO_FUELOIL_7   STRM_MURBAN_VGO_7        -1  PBAL_FUELOIL_7           1
    BL_MURBAN_VGO_FUELOIL_7   QUAL_FUELOIL_7           -25010
    TSLACK_MURBAN_VGO_7       COST                     -180  TSTRM_MURBAN_VGO_7       -1
    TBL_MURBAN_VGO_DIESEL_P_7  TSTRM_MURBAN_VGO_7       -1  PBAL_DIESEL_P_7          1
    TBL_MURBAN_VGO_DIESEL_P_7  QUAL_DIESEL_P_7          49.6
    TBL_MURBAN_VGO_FUELOIL_7  TSTRM_MURBAN_VGO_7       -1  PBAL_FUELOIL_7           1
    TBL_MURBAN_VGO_FUELOIL_7  QUAL_FUELOIL_7           -34600.4
    SLACK_MURBAN_RESIDUE_7    COST                     -180  STRM_MURBAN_RESIDUE_7    -1
    HDT_MURBAN_RESIDUE_7      COST                     -240  STRM_MURBAN_RESIDUE_7    -1
    HDT_MURBAN_RESIDUE_7      TSTRM_MURBAN_RESIDUE_7   1  HDTCAP_7                 1
    BL_MURBAN_RESIDUE_FUELOIL_7  STRM_MURBAN_RESIDUE_7    -1  PBAL_FUELOIL_7           1
    BL_MURBAN_RESIDUE_FUELOIL_7  QUAL_FUELOIL_7           -15760
    TSLACK_MURBAN_RESIDUE_7   COST                     -180  TSTRM_MURBAN_RESIDUE_7   -1
    TBL_MURBAN_RESIDUE_FUELOIL_7  TSTRM_MURBAN_RESIDUE_7   -1  PBAL_FUELOIL_7           1
    TBL_MURBAN_RESIDUE_FUELOIL_7  QUAL_FUELOIL_7           -34230.4
    FSLACK_MURBAN_NAPHTHA_7   COST                     -180  FSTRM_MURBAN_NAPHTHA_7   -1
    FBL_MURBAN_NAPHTHA_GASOLINE_7  FSTRM_MURBAN_NAPHTHA_7   -1  PBAL_GASOLINE_7          1
    FBL_MURBAN_NAPHTHA_GASOLINE_7  QUAL_GASOLINE_7          1.8
    FBL_MURBAN_NAPHTHA_JET_7  FSTRM_MURBAN_NAPHTHA_7   -1  PBAL_JET_7               1
    FBL_MURBAN_NAPHTHA_JET_7  QUAL_JET_7               -2448.2
    FSLACK_MURBAN_DIESEL_7    COST                     -180  FSTRM_MURBAN_DIESEL_7    -1
    FBL_MURBAN_DIESEL_DIESEL_P_7  FSTRM_MURBAN_DIESEL_7    -1  PBAL_DIESEL_P_7          1
    FBL_MURBAN_DIESEL_DIESEL_P_7  QUAL_DIESEL_P_7          1074.5
    FBL_MURBAN_DIESEL_FUELOIL_7  FSTRM_MURBAN_DIESEL_7    -1  PBAL_FUELOIL_7           1
    FBL_MURBAN_DIESEL_FUELOIL_7  QUAL_FUELOIL_7           -33575.5
    BUY_ES_SIDER_7            COST                     -6540  CBAL_ES_SIDER_7          1
    INVC_ES_SIDER_7           COST                     -78.48  CBAL_ES_SIDER_7          -1
    INVC_ES_SIDER_7           CBAL_ES_SIDER_8          1
    CHG_ES_SIDER_7            COST                     -145  CBAL_ES_SIDER_7          -1
    CHG_ES_SIDER_7            CDUCAP_7                 1  STRM_ES_SIDER_NAPHTHA_7  0.25
    CHG_ES_SIDER_7            STRM_ES_SIDER_KERO_7     0.18  STRM_ES_SIDER_DIESEL_7   0.25
    CHG_ES_SIDER_7            STRM_ES_SIDER_VGO_7      0.2  STRM_ES_SIDER_RESIDUE_7  0.12
    SLACK_ES_SIDER_NAPHTHA_7  COST                     -180  STRM_ES_SIDER_NAPHTHA_7  -1
    HDT_ES_SIDER_NAPHTHA_7    COST                     -240  STRM_ES_SIDER_NAPHTHA_7  -1
    HDT_ES_SIDER_NAPHTHA_7    TSTRM_ES_SIDER_NAPHTHA_7 1  HDTCAP_7                 1
    BL_ES_SIDER_NAPHTHA_GASOLINE_7  STRM_ES_SIDER_NAPHTHA_7  -1  PBAL_GASOLINE_7          1
    BL_ES_SIDER_NAPHTHA_GASOLINE_7  QUAL_GASOLINE_7          32
    BL_ES_SIDER_NAPHTHA_JET_7  STRM_ES_SIDER_NAPHTHA_7  -1  PBAL_JET_7               1
    BL_ES_SIDER_NAPHTHA_JET_7  QUAL_JET_7               -2418
    TSLACK_ES_SIDER_NAPHTHA_7  COST                     -180  TSTRM_ES_SIDER_NAPHTHA_7 -1
    TBL_ES_SIDER_NAPHTHA_GASOLINE_7  TSTRM_ES_SIDER_NAPHTHA_7 -1  PBAL_GASOLINE_7          1
    TBL_ES_SIDER_NAPHTHA_GASOLINE_7  QUAL_GASOLINE_7          -46.72
    TBL_ES_SIDER_NAPHTHA_JET_7  TSTRM_ES_SIDER_NAPHTHA_7 -1  PBAL_JET_7               1
    TBL_ES_SIDER_NAPHTHA_JET_7  QUAL_JET_7               -2496.72
    SLACK_ES_SIDER_KERO_7     COST                     -180  STRM_ES_SIDER_KERO_7     -1
    HDT_ES_SIDER_KERO_7       COST                     -240  STRM_ES_SIDER_KERO_7     -1
    HDT_ES_SIDER_KERO_7       TSTRM_ES_SIDER_KERO_7    1  HDTCAP_7                 1
    BL_ES_SIDER_KERO_GASOLINE_7  STRM_ES_SIDER_KERO_7     -1  PBAL_GASOLINE_7          1
    BL_ES_SIDER_KERO_GASOLINE_7  QUAL_GASOLINE_7          565
    BL_ES_SIDER_KERO_JET_7    STRM_ES_SIDER_KERO_7     -1  PBAL_JET_7               1
    BL_ES_SIDER_KERO_JET_7    QUAL_JET_7               -1885
    BL_ES_SIDER_KERO_DIESEL_P_7  STRM_ES_SIDER_KERO_7     -1  PBAL_DIESEL_P_7          1
    BL_ES_SIDER_KERO_DIESEL_P_7  QUAL_DIESEL_P_7          265
    TSLACK_ES_SIDER_KERO_7    COST                     -180  TSTRM_ES_SIDER_KERO_7    -1
    TBL_ES_SIDER_KERO_GASOLINE_7  TSTRM_ES_SIDER_KERO_7    -1  PBAL_GASOLINE_7          1
    TBL_ES_SIDER_KERO_GASOLINE_7  QUAL_GASOLINE_7          -25.4
    TBL_ES_SIDER_KERO_JET_7   TSTRM_ES_SIDER_KERO_7    -1  PBAL_JET_7               1
    TBL_ES_SIDER_KERO_JET_7   QUAL_JET_7               -2475.4
    TBL_ES_SIDER_KERO_DIESEL_P_7  TSTRM_ES_SIDER_KERO_7    -1  PBAL_DIESEL_P_7          1
    TBL_ES_SIDER_KERO_DIESEL_P_7  QUAL_DIESEL_P_7          -325.4
    SLACK_ES_SIDER_DIESEL_7   COST                     -180  STRM_ES_SIDER_DIESEL_7   -1
    HDT_ES_SIDER_DIESEL_7     COST                     -240  STRM_ES_SIDER_DIESEL_7   -1
    HDT_ES_SIDER_DIESEL_7     TSTRM_ES_SIDER_DIESEL_7  1  HDTCAP_7                 1
    BL_ES_SIDER_DIESEL_DIESEL_P_7  STRM_ES_SIDER_DIESEL_7   -1  PBAL_DIESEL_P_7          1
    BL_ES_SIDER_DIESEL_DIESEL_P_7  QUAL_DIESEL_P_7          1905
    BL_ES_SIDER_DIESEL_FUELOIL_7  STRM_ES_SIDER_DIESEL_7   -1  PBAL_FUELOIL_7           1
    BL_ES_SIDER_DIESEL_FUELOIL_7  QUAL_FUELOIL_7           -32745
    TSLACK_ES_SIDER_DIESEL_7  COST                     -180  TSTRM_ES_SIDER_DIESEL_7  -1
    TBL_ES_SIDER_DIESEL_DIESEL_P_7  TSTRM_ES_SIDER_DIESEL_7  -1  PBAL_DIESEL_P_7          1
    TBL_ES_SIDER_DIESEL_DIESEL_P_7  QUAL_DIESEL_P_7          -259.8
    TBL_ES_SIDER_DIESEL_FUELOIL_7  TSTRM_ES_SIDER_DIESEL_7  -1  PBAL_FUELOIL_7           1
    TBL_ES_SIDER_DIESEL_FUELOIL_7  QUAL_FUELOIL_7           -34909.8
    SLACK_ES_SIDER_VGO_7      COST                     -180  STRM_ES_SIDER_VGO_7      -1
    HDT_ES_SIDER_VGO_7        COST                     -240  STRM_ES_SIDER_VGO_7      -1
    HDT_ES_SIDER_VGO_7        TSTRM_ES_SIDER_VGO_7     1  HDTCAP_7                 1
    FCC_ES_SIDER_7            COST                     -310  STRM_ES_SIDER_VGO_7      -1
    FCC_ES_SIDER_7            FSTRM_ES_SIDER_NAPHTHA_7 0.55  FSTRM_ES_SIDER_DIESEL_7  0.25
    FCC_ES_SIDER_7            FCCCAP_7                 1
    BL_ES_SIDER_VGO_DIESEL_P_7  STRM_ES_SIDER_VGO_7      -1  PBAL_DIESEL_P_7          1
    BL_ES_SIDER_VGO_DIESEL_P_7  QUAL_DIESEL_P_7          5185
    BL_ES_SIDER_VGO_FUELOIL_7  STRM_ES_SIDER_VGO_7      -1  PBAL_FUELOIL_7           1
    BL_ES_SIDER_VGO_FUELOIL_7  QUAL_FUELOIL_7           -29465
    TSLACK_ES_SIDER_VGO_7     COST                     -180  TSTRM_ES_SIDER_VGO_7     -1
    TBL_ES_SIDER_VGO_DIESEL_P_7  TSTRM_ES_SIDER_VGO_7     -1  PBAL_DIESEL_P_7          1
    TBL_ES_SIDER_VGO_DIESEL_P_7  QUAL_DIESEL_P_7          -128.6
    TBL_ES_SIDER_VGO_FUELOIL_7  TSTRM_ES_SIDER_VGO_7     -1  PBAL_FUELOIL_7           1
    TBL_ES_SIDER_VGO_FUELOIL_7  QUAL_FUELOIL_7           -34778.6
    SLACK_ES_SIDER_RESIDUE_7  COST                     -180  STRM_ES_SIDER_RESIDUE_7  -1
    HDT_ES_SIDER_RESIDUE_7    COST                     -240  STRM_ES_SIDER_RESIDUE_7  -1
    HDT_ES_SIDER_RESIDUE_7    TSTRM_ES_SIDER_RESIDUE_7 1  HDTCAP_7                 1
    BL_ES_SIDER_RESIDUE_FUELOIL_7  STRM_ES_SIDER_RESIDUE_7  -1  PBAL_FUELOIL_7           1
    BL_ES_SIDER_RESIDUE_FUELOIL_7  QUAL_FUELOIL_7           -24340
    TSLACK_ES_SIDER_RESIDUE_7  COST                     -180  TSTRM_ES_SIDER_RESIDUE_7 -1
    TBL_ES_SIDER_RESIDUE_FUELOIL_7  TSTRM_ES_SIDER_RESIDUE_7 -1  PBAL_FUELOIL_7           1
    TBL_ES_SIDER_RESIDUE_FUELOIL_7  QUAL_FUELOIL_7           -34573.6
    FSLACK_ES_SIDER_NAPHTHA_7  COST                     -180  FSTRM_ES_SIDER_NAPHTHA_7 -1
    FBL_ES_SIDER_NAPHTHA_GASOLINE_7  FSTRM_ES_SIDER_NAPHTHA_7 -1  PBAL_GASOLINE_7          1
    FBL_ES_SIDER_NAPHTHA_GASOLINE_7  QUAL_GASOLINE_7          -21.3
    FBL_ES_SIDER_NAPHTHA_JET_7  FSTRM_ES_SIDER_NAPHTHA_7 -1  PBAL_JET_7               1
    FBL_ES_SIDER_NAPHTHA_JET_7  QUAL_JET_7               -2471.3
    FSLACK_ES_SIDER_DIESEL_7  COST                     -180  FSTRM_ES_SIDER_DIESEL_7  -1
    FBL_ES_SIDER_DIESEL_DIESEL_P_7  FSTRM_ES_SIDER_DIESEL_7  -1  PBAL_DIESEL_P_7          1
    FBL_ES_SIDER_DIESEL_DIESEL_P_7  QUAL_DIESEL_P_7          439.25
    FBL_ES_SIDER_DIESEL_FUELOIL_7  FSTRM_ES_SIDER_DIESEL_7  -1  PBAL_FUELOIL_7           1
    FBL_ES_SIDER_DIESEL_FUELOIL_7  QUAL_FUELOIL_7           -34210.75
    BUY_QUA_IBOE_7            COST                     -6890  CBAL_QUA_IBOE_7          1
    INVC_QUA_IBOE_7           COST                     -82.68  CBAL_QUA_IBOE_7          -1
    INVC_QUA_IBOE_7           CBAL_QUA_IBOE_8          1
    CHG_QUA_IBOE_7            COST                     -145  CBAL_QUA_IBOE_7          -1
    CHG_QUA_IBOE_7            CDUCAP_7                 1  STRM_QUA_IBOE_NAPHTHA_7  0.27
    CHG_QUA_IBOE_7            STRM_QUA_IBOE_KERO_7     0.2  STRM_QUA_IBOE_DIESEL_7   0.25
    CHG_QUA_IBOE_7            STRM_QUA_IBOE_VGO_7      0.18  STRM_QUA_IBOE_RESIDUE_7  0.1
    SLACK_QUA_IBOE_NAPHTHA_7  COST                     -180  STRM_QUA_IBOE_NAPHTHA_7  -1
    HDT_QUA_IBOE_NAPHTHA_7    COST                     -240  STRM_QUA_IBOE_NAPHTHA_7  -1
    HDT_QUA_IBOE_NAPHTHA_7    TSTRM_QUA_IBOE_NAPHTHA_7 1  HDTCAP_7                 1
    BL_QUA_IBOE_NAPHTHA_GASOLINE_7  STRM_QUA_IBOE_NAPHTHA_7  -1  PBAL_GASOLINE_7          1
    BL_QUA_IBOE_NAPHTHA_GASOLINE_7  QUAL_GASOLINE_7          -24
    BL_QUA_IBOE_NAPHTHA_JET_7  STRM_QUA_IBOE_NAPHTHA_7  -1  PBAL_JET_7               1
    BL_QUA_IBOE_NAPHTHA_JET_7  QUAL_JET_7               -2474
    TSLACK_QUA_IBOE_NAPHTHA_7  COST                     -180  TSTRM_QUA_IBOE_NAPHTHA_7 -1
    TBL_QUA_IBOE_NAPHTHA_GASOLINE_7  TSTRM_QUA_IBOE_NAPHTHA_7 -1  PBAL_GASOLINE_7          1
    TBL_QUA_IBOE_NAPHTHA_GASOLINE_7  QUAL_GASOLINE_7          -48.96
    TBL_QUA_IBOE_NAPHTHA_JET_7  TSTRM_QUA_IBOE_NAPHTHA_7 -1  PBAL_JET_7               1
    TBL_QUA_IBOE_NAPHTHA_JET_7  QUAL_JET_7               -2498.96
    SLACK_QUA_IBOE_KERO_7     COST                     -180  STRM_QUA_IBOE_KERO_7     -1
    HDT_QUA_IBOE_KERO_7       COST                     -240  STRM_QUA_IBOE_KERO_7     -1
    HDT_QUA_IBOE_KERO_7       TSTRM_QUA_IBOE_KERO_7    1  HDTCAP_7                 1
    BL_QUA_IBOE_KERO_GASOLINE_7  STRM_QUA_IBOE_KERO_7     -1  PBAL_GASOLINE_7          1
    BL_QUA_IBOE_KERO_GASOLINE_7  QUAL_GASOLINE_7          145
    BL_QUA_IBOE_KERO_JET_7    STRM_QUA_IBOE_KERO_7     -1  PBAL_JET_7               1
    BL_QUA_IBOE_KERO_JET_7    QUAL_JET_7               -2305
    BL_QUA_IBOE_KERO_DIESEL_P_7  STRM_QUA_IBOE_KERO_7     -1  PBAL_DIESEL_P_7          1
    BL_QUA_IBOE_KERO_DIESEL_P_7  QUAL_DIESEL_P_7          -155
    TSLACK_QUA_IBOE_KERO_7    COST                     -180  TSTRM_QUA_IBOE_KERO_7    -1
    TBL_QUA_IBOE_KERO_GASOLINE_7  TSTRM_QUA_IBOE_KERO_7    -1  PBAL_GASOLINE_7          1
    TBL_QUA_IBOE_KERO_GASOLINE_7  QUAL_GASOLINE_7          -42.2
    TBL_QUA_IBOE_KERO_JET_7   TSTRM_QUA_IBOE_KERO_7    -1  PBAL_JET_7               1
    TBL_QUA_IBOE_KERO_JET_7   QUAL_JET_7               -2492.2
    TBL_QUA_IBOE_KERO_DIESEL_P_7  TSTRM_QUA_IBOE_KERO_7    -1  PBAL_DIESEL_P_7          1
    TBL_QUA_IBOE_KERO_DIESEL_P_7  QUAL_DIESEL_P_7          -342.2
    SLACK_QUA_IBOE_DIESEL_7   COST                     -180  STRM_QUA_IBOE_DIESEL_7   -1
    HDT_QUA_IBOE_DIESEL_7     COST                     -240  STRM_QUA_IBOE_DIESEL_7   -1
    HDT_QUA_IBOE_DIESEL_7     TSTRM_QUA_IBOE_DIESEL_7  1  HDTCAP_7                 1
    BL_QUA_IBOE_DIESEL_DIESEL_P_7  STRM_QUA_IBOE_DIESEL_7   -1  PBAL_DIESEL_P_7          1
    BL_QUA_IBOE_DIESEL_DIESEL_P_7  QUAL_DIESEL_P_7          365
    BL_QUA_IBOE_DIESEL_FUELOIL_7  STRM_QUA_IBOE_DIESEL_7   -1  PBAL_FUELOIL_7           1
    BL_QUA_IBOE_DIESEL_FUELOIL_7  QUAL_FUELOIL_7           -34285
    TSLACK_QUA_IBOE_DIESEL_7  COST                     -180  TSTRM_QUA_IBOE_DIESEL_7  -1
    TBL_QUA_IBOE_DIESEL_DIESEL_P_7  TSTRM_QUA_IBOE_DIESEL_7  -1  PBAL_DIESEL_P_7          1
    TBL_QUA_IBOE_DIESEL_DIESEL_P_7  QUAL_DIESEL_P_7          -321.4
    TBL_QUA_IBOE_DIESEL_FUELOIL_7  TSTRM_QUA_IBOE_DIESEL_7  -1  PBAL_FUELOIL_7           1
    TBL_QUA_IBOE_DIESEL_FUELOIL_7  QUAL_FUELOIL_7           -34971.4
    SLACK_QUA_IBOE_VGO_7      COST                     -180  STRM_QUA_IBOE_VGO_7      -1
    HDT_QUA_IBOE_VGO_7        COST                     -240  STRM_QUA_IBOE_VGO_7      -1
    HDT_QUA_IBOE_VGO_7        TSTRM_QUA_IBOE_VGO_7     1  HDTCAP_7                 1
    FCC_QUA_IBOE_7            COST                     -310  STRM_QUA_IBOE_VGO_7      -1
    FCC_QUA_IBOE_7            FSTRM_QUA_IBOE_NAPHTHA_7 0.55  FSTRM_QUA_IBOE_DIESEL_7  0.25
    FCC_QUA_IBOE_7            FCCCAP_7                 1
    BL_QUA_IBOE_VGO_DIESEL_P_7  STRM_QUA_IBOE_VGO_7      -1  PBAL_DIESEL_P_7          1
    BL_QUA_IBOE_VGO_DIESEL_P_7  QUAL_DIESEL_P_7          1405
    BL_QUA_IBOE_VGO_FUELOIL_7  STRM_QUA_IBOE_VGO_7      -1  PBAL_FUELOIL_7           1
    BL_QUA_IBOE_VGO_FUELOIL_7  QUAL_FUELOIL_7           -33245
    TSLACK_QUA_IBOE_VGO_7     COST                     -180  TSTRM_QUA_IBOE_VGO_7     -1
    TBL_QUA_IBOE_VGO_DIESEL_P_7  TSTRM_QUA_IBOE_VGO_7     -1  PBAL_DIESEL_P_7          1
    TBL_QUA_IBOE_VGO_DIESEL_P_7  QUAL_DIESEL_P_7          -279.8
    TBL_QUA_IBOE_VGO_FUELOIL_7  TSTRM_QUA_IBOE_VGO_7     -1  PBAL_FUELOIL_7           1
    TBL_QUA_IBOE_VGO_FUELOIL_7  QUAL_FUELOIL_7           -34929.8
    SLACK_QUA_IBOE_RESIDUE_7  COST                     -180  STRM_QUA_IBOE_RESIDUE_7  -1
    HDT_QUA_IBOE_RESIDUE_7    COST                     -240  STRM_QUA_IBOE_RESIDUE_7  -1
    HDT_QUA_IBOE_RESIDUE_7    TSTRM_QUA_IBOE_RESIDUE_7 1  HDTCAP_7                 1
    BL_QUA_IBOE_RESIDUE_FUELOIL_7  STRM_QUA_IBOE_RESIDUE_7  -1  PBAL_FUELOIL_7           1
    BL_QUA_IBOE_RESIDUE_FUELOIL_7  QUAL_FUELOIL_7           -31620
    TSLACK_QUA_IBOE_RESIDUE_7  COST                     -180  TSTRM_QUA_IBOE_RESIDUE_7 -1
    TBL_QUA_IBOE_RESIDUE_FUELOIL_7  TSTRM_QUA_IBOE_RESIDUE_7 -1  PBAL_FUELOIL_7           1
    TBL_QUA_IBOE_RESIDUE_FUELOIL_7  QUAL_FUELOIL_7           -34864.8
    FSLACK_QUA_IBOE_NAPHTHA_7  COST                     -180  FSTRM_QUA_IBOE_NAPHTHA_7 -1
    FBL_QUA_IBOE_NAPHTHA_GASOLINE_7  FSTRM_QUA_IBOE_NAPHTHA_7 -1  PBAL_GASOLINE_7          1
    FBL_QUA_IBOE_NAPHTHA_GASOLINE_7  QUAL_GASOLINE_7          -40.9
    FBL_QUA_IBOE_NAPHTHA_JET_7  FSTRM_QUA_IBOE_NAPHTHA_7 -1  PBAL_JET_7               1
    FBL_QUA_IBOE_NAPHTHA_JET_7  QUAL_JET_7               -2490.9
    FSLACK_QUA_IBOE_DIESEL_7  COST                     -180  FSTRM_QUA_IBOE_DIESEL_7  -1
    FBL_QUA_IBOE_DIESEL_DIESEL_P_7  FSTRM_QUA_IBOE_DIESEL_7  -1  PBAL_DIESEL_P_7          1
    FBL_QUA_IBOE_DIESEL_DIESEL_P_7  QUAL_DIESEL_P_7          -99.75
    FBL_QUA_IBOE_DIESEL_FUELOIL_7  FSTRM_QUA_IBOE_DIESEL_7  -1  PBAL_FUELOIL_7           1
    FBL_QUA_IBOE_DIESEL_FUELOIL_7  QUAL_FUELOIL_7           -34749.75
    SELL_GASOLINE_7           COST                     9250  PBAL_GASOLINE_7          -1
    SELL_JET_7                COST                     8900  PBAL_JET_7               -1
    SELL_DIESEL_P_7           COST                     8600  PBAL_DIESEL_P_7          -1
    SELL_FUELOIL_7            COST                     4900  PBAL_FUELOIL_7           -1
    BUY_BOMBAY_HIGH_8         COST                     -6850  CBAL_BOMBAY_HIGH_8       1
    INVC_BOMBAY_HIGH_8        COST                     -82.2  CBAL_BOMBAY_HIGH_8       -1
    INVC_BOMBAY_HIGH_8        CBAL_BOMBAY_HIGH_9       1
    CHG_BOMBAY_HIGH_8         COST                     -145  CBAL_BOMBAY_HIGH_8       -1
    CHG_BOMBAY_HIGH_8         CDUCAP_8                 1  STRM_BOMBAY_HIGH_NAPHTHA_8 0.26
    CHG_BOMBAY_HIGH_8         STRM_BOMBAY_HIGH_KERO_8  0.18  STRM_BOMBAY_HIGH_DIESEL_8 0.24
    CHG_BOMBAY_HIGH_8         STRM_BOMBAY_HIGH_VGO_8   0.2  STRM_BOMBAY_HIGH_RESIDUE_8 0.12
    SLACK_BOMBAY_HIGH_NAPHTHA_8  COST                     -180  STRM_BOMBAY_HIGH_NAPHTHA_8 -1
    HDT_BOMBAY_HIGH_NAPHTHA_8  COST                     -240  STRM_BOMBAY_HIGH_NAPHTHA_8 -1
    HDT_BOMBAY_HIGH_NAPHTHA_8  TSTRM_BOMBAY_HIGH_NAPHTHA_8 1  HDTCAP_8                 1
    BL_BOMBAY_HIGH_NAPHTHA_GASOLINE_8  STRM_BOMBAY_HIGH_NAPHTHA_8 -1  PBAL_GASOLINE_8          1
    BL_BOMBAY_HIGH_NAPHTHA_GASOLINE_8  QUAL_GASOLINE_8          -32
    BL_BOMBAY_HIGH_NAPHTHA_JET_8  STRM_BOMBAY_HIGH_NAPHTHA_8 -1  PBAL_JET_8               1
    BL_BOMBAY_HIGH_NAPHTHA_JET_8  QUAL_JET_8               -2482
    TSLACK_BOMBAY_HIGH_NAPHTHA_8  COST                     -180  TSTRM_BOMBAY_HIGH_NAPHTHA_8 -1
    TBL_BOMBAY_HIGH_NAPHTHA_GASOLINE_8  TSTRM_BOMBAY_HIGH_NAPHTHA_8 -1  PBAL_GASOLINE_8          1
    TBL_BOMBAY_HIGH_NAPHTHA_GASOLINE_8  QUAL_GASOLINE_8          -49.28
    TBL_BOMBAY_HIGH_NAPHTHA_JET_8  TSTRM_BOMBAY_HIGH_NAPHTHA_8 -1  PBAL_JET_8               1
    TBL_BOMBAY_HIGH_NAPHTHA_JET_8  QUAL_JET_8               -2499.28
    SLACK_BOMBAY_HIGH_KERO_8  COST                     -180  STRM_BOMBAY_HIGH_KERO_8  -1
    HDT_BOMBAY_HIGH_KERO_8    COST                     -240  STRM_BOMBAY_HIGH_KERO_8  -1
    HDT_BOMBAY_HIGH_KERO_8    TSTRM_BOMBAY_HIGH_KERO_8 1  HDTCAP_8                 1
    BL_BOMBAY_HIGH_KERO_GASOLINE_8  STRM_BOMBAY_HIGH_KERO_8  -1  PBAL_GASOLINE_8          1
    BL_BOMBAY_HIGH_KERO_GASOLINE_8  QUAL_GASOLINE_8          85
    BL_BOMBAY_HIGH_KERO_JET_8  STRM_BOMBAY_HIGH_KERO_8  -1  PBAL_JET_8               1
    BL_BOMBAY_HIGH_KERO_JET_8  QUAL_JET_8               -2365
    BL_BOMBAY_HIGH_KERO_DIESEL_P_8  STRM_BOMBAY_HIGH_KERO_8  -1  PBAL_DIESEL_P_8          1
    BL_BOMBAY_HIGH_KERO_DIESEL_P_8  QUAL_DIESEL_P_8          -215
    TSLACK_BOMBAY_HIGH_KERO_8  COST                     -180  TSTRM_BOMBAY_HIGH_KERO_8 -1
    TBL_BOMBAY_HIGH_KERO_GASOLINE_8  TSTRM_BOMBAY_HIGH_KERO_8 -1  PBAL_GASOLINE_8          1
    TBL_BOMBAY_HIGH_KERO_GASOLINE_8  QUAL_GASOLINE_8          -44.6
    TBL_BOMBAY_HIGH_KERO_JET_8  TSTRM_BOMBAY_HIGH_KERO_8 -1  PBAL_JET_8               1
    TBL_BOMBAY_HIGH_KERO_JET_8  QUAL_JET_8               -2494.6
    TBL_BOMBAY_HIGH_KERO_DIESEL_P_8  TSTRM_BOMBAY_HIGH_KERO_8 -1  PBAL_DIESEL_P_8          1
    TBL_BOMBAY_HIGH_KERO_DIESEL_P_8  QUAL_DIESEL_P_8          -344.6
    SLACK_BOMBAY_HIGH_DIESEL_8  COST                     -180  STRM_BOMBAY_HIGH_DIESEL_8 -1
    HDT_BOMBAY_HIGH_DIESEL_8  COST                     -240  STRM_BOMBAY_HIGH_DIESEL_8 -1
    HDT_BOMBAY_HIGH_DIESEL_8  TSTRM_BOMBAY_HIGH_DIESEL_8 1  HDTCAP_8                 1
    BL_BOMBAY_HIGH_DIESEL_DIESEL_P_8  STRM_BOMBAY_HIGH_DIESEL_8 -1  PBAL_DIESEL_P_8          1
    BL_BOMBAY_HIGH_DIESEL_DIESEL_P_8  QUAL_DIESEL_P_8          145
    BL_BOMBAY_HIGH_DIESEL_FUELOIL_8  STRM_BOMBAY_HIGH_DIESEL_8 -1  PBAL_FUELOIL_8           1
    BL_BOMBAY_HIGH_DIESEL_FUELOIL_8  QUAL_FUELOIL_8           -34505
    TSLACK_BOMBAY_HIGH_DIESEL_8  COST                     -180  TSTRM_BOMBAY_HIGH_DIESEL_8 -1
    TBL_BOMBAY_HIGH_DIESEL_DIESEL_P_8  TSTRM_BOMBAY_HIGH_DIESEL_8 -1  PBAL_DIESEL_P_8          1
    TBL_BOMBAY_HIGH_DIESEL_DIESEL_P_8  QUAL_DIESEL_P_8          -330.2
    TBL_BOMBAY_HIGH_DIESEL_FUELOIL_8  TSTRM_BOMBAY_HIGH_DIESEL_8 -1  PBAL_FUELOIL_8           1
    TBL_BOMBAY_HIGH_DIESEL_FUELOIL_8  QUAL_FUELOIL_8           -34980.2
    SLACK_BOMBAY_HIGH_VGO_8   COST                     -180  STRM_BOMBAY_HIGH_VGO_8   -1
    HDT_BOMBAY_HIGH_VGO_8     COST                     -240  STRM_BOMBAY_HIGH_VGO_8   -1
    HDT_BOMBAY_HIGH_VGO_8     TSTRM_BOMBAY_HIGH_VGO_8  1  HDTCAP_8                 1
    FCC_BOMBAY_HIGH_8         COST                     -310  STRM_BOMBAY_HIGH_VGO_8   -1
    FCC_BOMBAY_HIGH_8         FSTRM_BOMBAY_HIGH_NAPHTHA_8 0.55  FSTRM_BOMBAY_HIGH_DIESEL_8 0.25
    FCC_BOMBAY_HIGH_8         FCCCAP_8                 1
    BL_BOMBAY_HIGH_VGO_DIESEL_P_8  STRM_BOMBAY_HIGH_VGO_8   -1  PBAL_DIESEL_P_8          1
    BL_BOMBAY_HIGH_VGO_DIESEL_P_8  QUAL_DIESEL_P_8          865
    BL_BOMBAY_HIGH_VGO_FUELOIL_8  STRM_BOMBAY_HIGH_VGO_8   -1  PBAL_FUELOIL_8           1
    BL_BOMBAY_HIGH_VGO_FUELOIL_8  QUAL_FUELOIL_8           -33785
    TSLACK_BOMBAY_HIGH_VGO_8  COST                     -180  TSTRM_BOMBAY_HIGH_VGO_8  -1
    TBL_BOMBAY_HIGH_VGO_DIESEL_P_8  TSTRM_BOMBAY_HIGH_VGO_8  -1  PBAL_DIESEL_P_8          1
    TBL_BOMBAY_HIGH_VGO_DIESEL_P_8  QUAL_DIESEL_P_8          -301.4
    TBL_BOMBAY_HIGH_VGO_FUELOIL_8  TSTRM_BOMBAY_HIGH_VGO_8  -1  PBAL_FUELOIL_8           1
    TBL_BOMBAY_HIGH_VGO_FUELOIL_8  QUAL_FUELOIL_8           -34951.4
    SLACK_BOMBAY_HIGH_RESIDUE_8  COST                     -180  STRM_BOMBAY_HIGH_RESIDUE_8 -1
    HDT_BOMBAY_HIGH_RESIDUE_8  COST                     -240  STRM_BOMBAY_HIGH_RESIDUE_8 -1
    HDT_BOMBAY_HIGH_RESIDUE_8  TSTRM_BOMBAY_HIGH_RESIDUE_8 1  HDTCAP_8                 1
    BL_BOMBAY_HIGH_RESIDUE_FUELOIL_8  STRM_BOMBAY_HIGH_RESIDUE_8 -1  PBAL_FUELOIL_8           1
    BL_BOMBAY_HIGH_RESIDUE_FUELOIL_8  QUAL_FUELOIL_8           -32660
    TSLACK_BOMBAY_HIGH_RESIDUE_8  COST                     -180  TSTRM_BOMBAY_HIGH_RESIDUE_8 -1
    TBL_BOMBAY_HIGH_RESIDUE_FUELOIL_8  TSTRM_BOMBAY_HIGH_RESIDUE_8 -1  PBAL_FUELOIL_8           1
    TBL_BOMBAY_HIGH_RESIDUE_FUELOIL_8  QUAL_FUELOIL_8           -34906.4
    FSLACK_BOMBAY_HIGH_NAPHTHA_8  COST                     -180  FSTRM_BOMBAY_HIGH_NAPHTHA_8 -1
    FBL_BOMBAY_HIGH_NAPHTHA_GASOLINE_8  FSTRM_BOMBAY_HIGH_NAPHTHA_8 -1  PBAL_GASOLINE_8          1
    FBL_BOMBAY_HIGH_NAPHTHA_GASOLINE_8  QUAL_GASOLINE_8          -43.7
    FBL_BOMBAY_HIGH_NAPHTHA_JET_8  FSTRM_BOMBAY_HIGH_NAPHTHA_8 -1  PBAL_JET_8               1
    FBL_BOMBAY_HIGH_NAPHTHA_JET_8  QUAL_JET_8               -2493.7
    FSLACK_BOMBAY_HIGH_DIESEL_8  COST                     -180  FSTRM_BOMBAY_HIGH_DIESEL_8 -1
    FBL_BOMBAY_HIGH_DIESEL_DIESEL_P_8  FSTRM_BOMBAY_HIGH_DIESEL_8 -1  PBAL_DIESEL_P_8          1
    FBL_BOMBAY_HIGH_DIESEL_DIESEL_P_8  QUAL_DIESEL_P_8          -176.75
    FBL_BOMBAY_HIGH_DIESEL_FUELOIL_8  FSTRM_BOMBAY_HIGH_DIESEL_8 -1  PBAL_FUELOIL_8           1
    FBL_BOMBAY_HIGH_DIESEL_FUELOIL_8  QUAL_FUELOIL_8           -34826.75
    BUY_ARAB_LIGHT_8          COST                     -6420  CBAL_ARAB_LIGHT_8        1
    INVC_ARAB_LIGHT_8         COST                     -77.04  CBAL_ARAB_LIGHT_8        -1
    INVC_ARAB_LIGHT_8         CBAL_ARAB_LIGHT_9        1
    CHG_ARAB_LIGHT_8          COST                     -145  CBAL_ARAB_LIGHT_8        -1
    CHG_ARAB_LIGHT_8          CDUCAP_8                 1  STRM_ARAB_LIGHT_NAPHTHA_8 0.22
    CHG_ARAB_LIGHT_8          STRM_ARAB_LIGHT_KERO_8   0.17  STRM_ARAB_LIGHT_DIESEL_8 0.23
    CHG_ARAB_LIGHT_8          STRM_ARAB_LIGHT_VGO_8    0.22  STRM_ARAB_LIGHT_RESIDUE_8 0.16
    SLACK_ARAB_LIGHT_NAPHTHA_8  COST                     -180  STRM_ARAB_LIGHT_NAPHTHA_8 -1
    HDT_ARAB_LIGHT_NAPHTHA_8  COST                     -240  STRM_ARAB_LIGHT_NAPHTHA_8 -1
    HDT_ARAB_LIGHT_NAPHTHA_8  TSTRM_ARAB_LIGHT_NAPHTHA_8 1  HDTCAP_8                 1
    BL_ARAB_LIGHT_NAPHTHA_GASOLINE_8  STRM_ARAB_LIGHT_NAPHTHA_8 -1  PBAL_GASOLINE_8          1
    BL_ARAB_LIGHT_NAPHTHA_GASOLINE_8  QUAL_GASOLINE_8          330
    BL_ARAB_LIGHT_NAPHTHA_JET_8  STRM_ARAB_LIGHT_NAPHTHA_8 -1  PBAL_JET_8               1
    BL_ARAB_LIGHT_NAPHTHA_JET_8  QUAL_JET_8               -2120
    TSLACK_ARAB_LIGHT_NAPHTHA_8  COST                     -180  TSTRM_ARAB_LIGHT_NAPHTHA_8 -1
    TBL_ARAB_LIGHT_NAPHTHA_GASOLINE_8  TSTRM_ARAB_LIGHT_NAPHTHA_8 -1  PBAL_GASOLINE_8          1
    TBL_ARAB_LIGHT_NAPHTHA_GASOLINE_8  QUAL_GASOLINE_8          -34.8
    TBL_ARAB_LIGHT_NAPHTHA_JET_8  TSTRM_ARAB_LIGHT_NAPHTHA_8 -1  PBAL_JET_8               1
    TBL_ARAB_LIGHT_NAPHTHA_JET_8  QUAL_JET_8               -2484.8
    SLACK_ARAB_LIGHT_KERO_8   COST                     -180  STRM_ARAB_LIGHT_KERO_8   -1
    HDT_ARAB_LIGHT_KERO_8     COST                     -240  STRM_ARAB_LIGHT_KERO_8   -1
    HDT_ARAB_LIGHT_KERO_8     TSTRM_ARAB_LIGHT_KERO_8  1  HDTCAP_8                 1
    BL_ARAB_LIGHT_KERO_GASOLINE_8  STRM_ARAB_LIGHT_KERO_8   -1  PBAL_GASOLINE_8          1
    BL_ARAB_LIGHT_KERO_GASOLINE_8  QUAL_GASOLINE_8          2800
    BL_ARAB_LIGHT_KERO_JET_8  STRM_ARAB_LIGHT_KERO_8   -1  PBAL_JET_8               1
    BL_ARAB_LIGHT_KERO_JET_8  QUAL_JET_8               350
    BL_ARAB_LIGHT_KERO_DIESEL_P_8  STRM_ARAB_LIGHT_KERO_8   -1  PBAL_DIESEL_P_8          1
    BL_ARAB_LIGHT_KERO_DIESEL_P_8  QUAL_DIESEL_P_8          2500
    TSLACK_ARAB_LIGHT_KERO_8  COST                     -180  TSTRM_ARAB_LIGHT_KERO_8  -1
    TBL_ARAB_LIGHT_KERO_GASOLINE_8  TSTRM_ARAB_LIGHT_KERO_8  -1  PBAL_GASOLINE_8          1
    TBL_ARAB_LIGHT_KERO_GASOLINE_8  QUAL_GASOLINE_8          64
    TBL_ARAB_LIGHT_KERO_JET_8  TSTRM_ARAB_LIGHT_KERO_8  -1  PBAL_JET_8               1
    TBL_ARAB_LIGHT_KERO_JET_8  QUAL_JET_8               -2386
    TBL_ARAB_LIGHT_KERO_DIESEL_P_8  TSTRM_ARAB_LIGHT_KERO_8  -1  PBAL_DIESEL_P_8          1
    TBL_ARAB_LIGHT_KERO_DIESEL_P_8  QUAL_DIESEL_P_8          -236
    SLACK_ARAB_LIGHT_DIESEL_8  COST                     -180  STRM_ARAB_LIGHT_DIESEL_8 -1
    HDT_ARAB_LIGHT_DIESEL_8   COST                     -240  STRM_ARAB_LIGHT_DIESEL_8 -1
    HDT_ARAB_LIGHT_DIESEL_8   TSTRM_ARAB_LIGHT_DIESEL_8 1  HDTCAP_8                 1
    BL_ARAB_LIGHT_DIESEL_DIESEL_P_8  STRM_ARAB_LIGHT_DIESEL_8 -1  PBAL_DIESEL_P_8          1
    BL_ARAB_LIGHT_DIESEL_DIESEL_P_8  QUAL_DIESEL_P_8          10100
    BL_ARAB_LIGHT_DIESEL_FUELOIL_8  STRM_ARAB_LIGHT_DIESEL_8 -1  PBAL_FUELOIL_8           1
    BL_ARAB_LIGHT_DIESEL_FUELOIL_8  QUAL_FUELOIL_8           -24550
    TSLACK_ARAB_LIGHT_DIESEL_8  COST                     -180  TSTRM_ARAB_LIGHT_DIESEL_8 -1
    TBL_ARAB_LIGHT_DIESEL_DIESEL_P_8  TSTRM_ARAB_LIGHT_DIESEL_8 -1  PBAL_DIESEL_P_8          1
    TBL_ARAB_LIGHT_DIESEL_DIESEL_P_8  QUAL_DIESEL_P_8          68
    TBL_ARAB_LIGHT_DIESEL_FUELOIL_8  TSTRM_ARAB_LIGHT_DIESEL_8 -1  PBAL_FUELOIL_8           1
    TBL_ARAB_LIGHT_DIESEL_FUELOIL_8  QUAL_FUELOIL_8           -34582
    SLACK_ARAB_LIGHT_VGO_8    COST                     -180  STRM_ARAB_LIGHT_VGO_8    -1
    HDT_ARAB_LIGHT_VGO_8      COST                     -240  STRM_ARAB_LIGHT_VGO_8    -1
    HDT_ARAB_LIGHT_VGO_8      TSTRM_ARAB_LIGHT_VGO_8   1  HDTCAP_8                 1
    FCC_ARAB_LIGHT_8          COST                     -310  STRM_ARAB_LIGHT_VGO_8    -1
    FCC_ARAB_LIGHT_8          FSTRM_ARAB_LIGHT_NAPHTHA_8 0.55  FSTRM_ARAB_LIGHT_DIESEL_8 0.25
    FCC_ARAB_LIGHT_8          FCCCAP_8                 1
    BL_ARAB_LIGHT_VGO_DIESEL_P_8  STRM_ARAB_LIGHT_VGO_8    -1  PBAL_DIESEL_P_8          1
    BL_ARAB_LIGHT_VGO_DIESEL_P_8  QUAL_DIESEL_P_8          25300
    BL_ARAB_LIGHT_VGO_FUELOIL_8  STRM_ARAB_LIGHT_VGO_8    -1  PBAL_FUELOIL_8           1
    BL_ARAB_LIGHT_VGO_FUELOIL_8  QUAL_FUELOIL_8           -9350
    TSLACK_ARAB_LIGHT_VGO_8   COST                     -180  TSTRM_ARAB_LIGHT_VGO_8   -1
    TBL_ARAB_LIGHT_VGO_DIESEL_P_8  TSTRM_ARAB_LIGHT_VGO_8   -1  PBAL_DIESEL_P_8          1
    TBL_ARAB_LIGHT_VGO_DIESEL_P_8  QUAL_DIESEL_P_8          676
    TBL_ARAB_LIGHT_VGO_FUELOIL_8  TSTRM_ARAB_LIGHT_VGO_8   -1  PBAL_FUELOIL_8           1
    TBL_ARAB_LIGHT_VGO_FUELOIL_8  QUAL_FUELOIL_8           -33974
    SLACK_ARAB_LIGHT_RESIDUE_8  COST                     -180  STRM_ARAB_LIGHT_RESIDUE_8 -1
    HDT_ARAB_LIGHT_RESIDUE_8  COST                     -240  STRM_ARAB_LIGHT_RESIDUE_8 -1
    HDT_ARAB_LIGHT_RESIDUE_8  TSTRM_ARAB_LIGHT_RESIDUE_8 1  HDTCAP_8                 1
    BL_ARAB_LIGHT_RESIDUE_FUELOIL_8  STRM_ARAB_LIGHT_RESIDUE_8 -1  PBAL_FUELOIL_8           1
    BL_ARAB_LIGHT_RESIDUE_FUELOIL_8  QUAL_FUELOIL_8           14400
    TSLACK_ARAB_LIGHT_RESIDUE_8  COST                     -180  TSTRM_ARAB_LIGHT_RESIDUE_8 -1
    TBL_ARAB_LIGHT_RESIDUE_FUELOIL_8  TSTRM_ARAB_LIGHT_RESIDUE_8 -1  PBAL_FUELOIL_8           1
    TBL_ARAB_LIGHT_RESIDUE_FUELOIL_8  QUAL_FUELOIL_8           -33024
    FSLACK_ARAB_LIGHT_NAPHTHA_8  COST                     -180  FSTRM_ARAB_LIGHT_NAPHTHA_8 -1
    FBL_ARAB_LIGHT_NAPHTHA_GASOLINE_8  FSTRM_ARAB_LIGHT_NAPHTHA_8 -1  PBAL_GASOLINE_8          1
    FBL_ARAB_LIGHT_NAPHTHA_GASOLINE_8  QUAL_GASOLINE_8          83
    FBL_ARAB_LIGHT_NAPHTHA_JET_8  FSTRM_ARAB_LIGHT_NAPHTHA_8 -1  PBAL_JET_8               1
    FBL_ARAB_LIGHT_NAPHTHA_JET_8  QUAL_JET_8               -2367
    FSLACK_ARAB_LIGHT_DIESEL_8  COST                     -180  FSTRM_ARAB_LIGHT_DIESEL_8 -1
    FBL_ARAB_LIGHT_DIESEL_DIESEL_P_8  FSTRM_ARAB_LIGHT_DIESEL_8 -1  PBAL_DIESEL_P_8          1
    FBL_ARAB_LIGHT_DIESEL_DIESEL_P_8  QUAL_DIESEL_P_8          3307.5
    FBL_ARAB_LIGHT_DIESEL_FUELOIL_8  FSTRM_ARAB_LIGHT_DIESEL_8 -1  PBAL_FUELOIL_8           1
    FBL_ARAB_LIGHT_DIESEL_FUELOIL_8  QUAL_FUELOIL_8           -31342.5
    BUY_ARAB_HEAVY_8          COST                     -5980  CBAL_ARAB_HEAVY_8        1
    INVC_ARAB_HEAVY_8         COST                     -71.76  CBAL_ARAB_HEAVY_8        -1
    INVC_ARAB_HEAVY_8         CBAL_ARAB_HEAVY_9        1
    CHG_ARAB_HEAVY_8          COST                     -145  CBAL_ARAB_HEAVY_8        -1
    CHG_ARAB_HEAVY_8          CDUCAP_8                 1  STRM_ARAB_HEAVY_NAPHTHA_8 0.16
    CHG_ARAB_HEAVY_8          STRM_ARAB_HEAVY_KERO_8   0.14  STRM_ARAB_HEAVY_DIESEL_8 0.21
    CHG_ARAB_HEAVY_8          STRM_ARAB_HEAVY_VGO_8    0.25  STRM_ARAB_HEAVY_RESIDUE_8 0.24
    SLACK_ARAB_HEAVY_NAPHTHA_8  COST                     -180  STRM_ARAB_HEAVY_NAPHTHA_8 -1
    HDT_ARAB_HEAVY_NAPHTHA_8  COST                     -240  STRM_ARAB_HEAVY_NAPHTHA_8 -1
    HDT_ARAB_HEAVY_NAPHTHA_8  TSTRM_ARAB_HEAVY_NAPHTHA_8 1  HDTCAP_8                 1
    BL_ARAB_HEAVY_NAPHTHA_GASOLINE_8  STRM_ARAB_HEAVY_NAPHTHA_8 -1  PBAL_GASOLINE_8          1
    BL_ARAB_HEAVY_NAPHTHA_GASOLINE_8  QUAL_GASOLINE_8          530
    BL_ARAB_HEAVY_NAPHTHA_JET_8  STRM_ARAB_HEAVY_NAPHTHA_8 -1  PBAL_JET_8               1
    BL_ARAB_HEAVY_NAPHTHA_JET_8  QUAL_JET_8               -1920
    TSLACK_ARAB_HEAVY_NAPHTHA_8  COST                     -180  TSTRM_ARAB_HEAVY_NAPHTHA_8 -1
    TBL_ARAB_HEAVY_NAPHTHA_GASOLINE_8  TSTRM_ARAB_HEAVY_NAPHTHA_8 -1  PBAL_GASOLINE_8          1
    TBL_ARAB_HEAVY_NAPHTHA_GASOLINE_8  QUAL_GASOLINE_8          -26.8
    TBL_ARAB_HEAVY_NAPHTHA_JET_8  TSTRM_ARAB_HEAVY_NAPHTHA_8 -1  PBAL_JET_8               1
    TBL_ARAB_HEAVY_NAPHTHA_JET_8  QUAL_JET_8               -2476.8
    SLACK_ARAB_HEAVY_KERO_8   COST                     -180  STRM_ARAB_HEAVY_KERO_8   -1
    HDT_ARAB_HEAVY_KERO_8     COST                     -240  STRM_ARAB_HEAVY_KERO_8   -1
    HDT_ARAB_HEAVY_KERO_8     TSTRM_ARAB_HEAVY_KERO_8  1  HDTCAP_8                 1
    BL_ARAB_HEAVY_KERO_GASOLINE_8  STRM_ARAB_HEAVY_KERO_8   -1  PBAL_GASOLINE_8          1
    BL_ARAB_HEAVY_KERO_GASOLINE_8  QUAL_GASOLINE_8          4300
    BL_ARAB_HEAVY_KERO_JET_8  STRM_ARAB_HEAVY_KERO_8   -1  PBAL_JET_8               1
    BL_ARAB_HEAVY_KERO_JET_8  QUAL_JET_8               1850
    BL_ARAB_HEAVY_KERO_DIESEL_P_8  STRM_ARAB_HEAVY_KERO_8   -1  PBAL_DIESEL_P_8          1
    BL_ARAB_HEAVY_KERO_DIESEL_P_8  QUAL_DIESEL_P_8          4000
    TSLACK_ARAB_HEAVY_KERO_8  COST                     -180  TSTRM_ARAB_HEAVY_KERO_8  -1
    TBL_ARAB_HEAVY_KERO_GASOLINE_8  TSTRM_ARAB_HEAVY_KERO_8  -1  PBAL_GASOLINE_8          1
    TBL_ARAB_HEAVY_KERO_GASOLINE_8  QUAL_GASOLINE_8          124
    TBL_ARAB_HEAVY_KERO_JET_8  TSTRM_ARAB_HEAVY_KERO_8  -1  PBAL_JET_8               1
    TBL_ARAB_HEAVY_KERO_JET_8  QUAL_JET_8               -2326
    TBL_ARAB_HEAVY_KERO_DIESEL_P_8  TSTRM_ARAB_HEAVY_KERO_8  -1  PBAL_DIESEL_P_8          1
    TBL_ARAB_HEAVY_KERO_DIESEL_P_8  QUAL_DIESEL_P_8          -176
    SLACK_ARAB_HEAVY_DIESEL_8  COST                     -180  STRM_ARAB_HEAVY_DIESEL_8 -1
    HDT_ARAB_HEAVY_DIESEL_8   COST                     -240  STRM_ARAB_HEAVY_DIESEL_8 -1
    HDT_ARAB_HEAVY_DIESEL_8   TSTRM_ARAB_HEAVY_DIESEL_8 1  HDTCAP_8                 1
    BL_ARAB_HEAVY_DIESEL_DIESEL_P_8  STRM_ARAB_HEAVY_DIESEL_8 -1  PBAL_DIESEL_P_8          1
    BL_ARAB_HEAVY_DIESEL_DIESEL_P_8  QUAL_DIESEL_P_8          15600
    BL_ARAB_HEAVY_DIESEL_FUELOIL_8  STRM_ARAB_HEAVY_DIESEL_8 -1  PBAL_FUELOIL_8           1
    BL_ARAB_HEAVY_DIESEL_FUELOIL_8  QUAL_FUELOIL_8           -19050
    TSLACK_ARAB_HEAVY_DIESEL_8  COST                     -180  TSTRM_ARAB_HEAVY_DIESEL_8 -1
    TBL_ARAB_HEAVY_DIESEL_DIESEL_P_8  TSTRM_ARAB_HEAVY_DIESEL_8 -1  PBAL_DIESEL_P_8          1
    TBL_ARAB_HEAVY_DIESEL_DIESEL_P_8  QUAL_DIESEL_P_8          288
    TBL_ARAB_HEAVY_DIESEL_FUELOIL_8  TSTRM_ARAB_HEAVY_DIESEL_8 -1  PBAL_FUELOIL_8           1
    TBL_ARAB_HEAVY_DIESEL_FUELOIL_8  QUAL_FUELOIL_8           -34362
    SLACK_ARAB_HEAVY_VGO_8    COST                     -180  STRM_ARAB_HEAVY_VGO_8    -1
    HDT_ARAB_HEAVY_VGO_8      COST                     -240  STRM_ARAB_HEAVY_VGO_8    -1
    HDT_ARAB_HEAVY_VGO_8      TSTRM_ARAB_HEAVY_VGO_8   1  HDTCAP_8                 1
    FCC_ARAB_HEAVY_8          COST                     -310  STRM_ARAB_HEAVY_VGO_8    -1
    FCC_ARAB_HEAVY_8          FSTRM_ARAB_HEAVY_NAPHTHA_8 0.55  FSTRM_ARAB_HEAVY_DIESEL_8 0.25
    FCC_ARAB_HEAVY_8          FCCCAP_8                 1
    BL_ARAB_HEAVY_VGO_DIESEL_P_8  STRM_ARAB_HEAVY_VGO_8    -1  PBAL_DIESEL_P_8          1
    BL_ARAB_HEAVY_VGO_DIESEL_P_8  QUAL_DIESEL_P_8          38800
    BL_ARAB_HEAVY_VGO_FUELOIL_8  STRM_ARAB_HEAVY_VGO_8    -1  PBAL_FUELOIL_8           1
    BL_ARAB_HEAVY_VGO_FUELOIL_8  QUAL_FUELOIL_8           4150
    TSLACK_ARAB_HEAVY_VGO_8   COST                     -180  TSTRM_ARAB_HEAVY_VGO_8   -1
    TBL_ARAB_HEAVY_VGO_DIESEL_P_8  TSTRM_ARAB_HEAVY_VGO_8   -1  PBAL_DIESEL_P_8          1
    TBL_ARAB_HEAVY_VGO_DIESEL_P_8  QUAL_DIESEL_P_8          1216
    TBL_ARAB_HEAVY_VGO_FUELOIL_8  TSTRM_ARAB_HEAVY_VGO_8   -1  PBAL_FUELOIL_8           1
    TBL_ARAB_HEAVY_VGO_FUELOIL_8  QUAL_FUELOIL_8           -33434
    SLACK_ARAB_HEAVY_RESIDUE_8  COST                     -180  STRM_ARAB_HEAVY_RESIDUE_8 -1
    HDT_ARAB_HEAVY_RESIDUE_8  COST                     -240  STRM_ARAB_HEAVY_RESIDUE_8 -1
    HDT_ARAB_HEAVY_RESIDUE_8  TSTRM_ARAB_HEAVY_RESIDUE_8 1  HDTCAP_8                 1
    BL_ARAB_HEAVY_RESIDUE_FUELOIL_8  STRM_ARAB_HEAVY_RESIDUE_8 -1  PBAL_FUELOIL_8           1
    BL_ARAB_HEAVY_RESIDUE_FUELOIL_8  QUAL_FUELOIL_8           40400
    TSLACK_ARAB_HEAVY_RESIDUE_8  COST                     -180  TSTRM_ARAB_HEAVY_RESIDUE_8 -1
    TBL_ARAB_HEAVY_RESIDUE_FUELOIL_8  TSTRM_ARAB_HEAVY_RESIDUE_8 -1  PBAL_FUELOIL_8           1
    TBL_ARAB_HEAVY_RESIDUE_FUELOIL_8  QUAL_FUELOIL_8           -31984
    FSLACK_ARAB_HEAVY_NAPHTHA_8  COST                     -180  FSTRM_ARAB_HEAVY_NAPHTHA_8 -1
    FBL_ARAB_HEAVY_NAPHTHA_GASOLINE_8  FSTRM_ARAB_HEAVY_NAPHTHA_8 -1  PBAL_GASOLINE_8          1
    FBL_ARAB_HEAVY_NAPHTHA_GASOLINE_8  QUAL_GASOLINE_8          153
    FBL_ARAB_HEAVY_NAPHTHA_JET_8  FSTRM_ARAB_HEAVY_NAPHTHA_8 -1  PBAL_JET_8               1
    FBL_ARAB_HEAVY_NAPHTHA_JET_8  QUAL_JET_8               -2297
    FSLACK_ARAB_HEAVY_DIESEL_8  COST                     -180  FSTRM_ARAB_HEAVY_DIESEL_8 -1
    FBL_ARAB_HEAVY_DIESEL_DIESEL_P_8  FSTRM_ARAB_HEAVY_DIESEL_8 -1  PBAL_DIESEL_P_8          1
    FBL_ARAB_HEAVY_DIESEL_DIESEL_P_8  QUAL_DIESEL_P_8          5232.5
    FBL_ARAB_HEAVY_DIESEL_FUELOIL_8  FSTRM_ARAB_HEAVY_DIESEL_8 -1  PBAL_FUELOIL_8           1
    FBL_ARAB_HEAVY_DIESEL_FUELOIL_8  QUAL_FUELOIL_8           -29417.5
    BUY_BASRAH_8              COST                     -6100  CBAL_BASRAH_8            1
    INVC_BASRAH_8             COST                     -73.2  CBAL_BASRAH_8            -1
    INVC_BASRAH_8             CBAL_BASRAH_9            1
    CHG_BASRAH_8              COST                     -145  CBAL_BASRAH_8            -1
    CHG_BASRAH_8              CDUCAP_8                 1  STRM_BASRAH_NAPHTHA_8    0.18
    CHG_BASRAH_8              STRM_BASRAH_KERO_8       0.15  STRM_BASRAH_DIESEL_8     0.22
    CHG_BASRAH_8              STRM_BASRAH_VGO_8        0.24  STRM_BASRAH_RESIDUE_8    0.21
    SLACK_BASRAH_NAPHTHA_8    COST                     -180  STRM_BASRAH_NAPHTHA_8    -1
    HDT_BASRAH_NAPHTHA_8      COST                     -240  STRM_BASRAH_NAPHTHA_8    -1
    HDT_BASRAH_NAPHTHA_8      TSTRM_BASRAH_NAPHTHA_8   1  HDTCAP_8                 1
    BL_BASRAH_NAPHTHA_GASOLINE_8  STRM_BASRAH_NAPHTHA_8    -1  PBAL_GASOLINE_8          1
    BL_BASRAH_NAPHTHA_GASOLINE_8  QUAL_GASOLINE_8          440
    BL_BASRAH_NAPHTHA_JET_8   STRM_BASRAH_NAPHTHA_8    -1  PBAL_JET_8               1
    BL_BASRAH_NAPHTHA_JET_8   QUAL_JET_8               -2010
    TSLACK_BASRAH_NAPHTHA_8   COST                     -180  TSTRM_BASRAH_NAPHTHA_8   -1
    TBL_BASRAH_NAPHTHA_GASOLINE_8  TSTRM_BASRAH_NAPHTHA_8   -1  PBAL_GASOLINE_8          1
    TBL_BASRAH_NAPHTHA_GASOLINE_8  QUAL_GASOLINE_8          -30.4
    TBL_BASRAH_NAPHTHA_JET_8  TSTRM_BASRAH_NAPHTHA_8   -1  PBAL_JET_8               1
    TBL_BASRAH_NAPHTHA_JET_8  QUAL_JET_8               -2480.4
    SLACK_BASRAH_KERO_8       COST                     -180  STRM_BASRAH_KERO_8       -1
    HDT_BASRAH_KERO_8         COST                     -240  STRM_BASRAH_KERO_8       -1
    HDT_BASRAH_KERO_8         TSTRM_BASRAH_KERO_8      1  HDTCAP_8                 1
    BL_BASRAH_KERO_GASOLINE_8  STRM_BASRAH_KERO_8       -1  PBAL_GASOLINE_8          1
    BL_BASRAH_KERO_GASOLINE_8  QUAL_GASOLINE_8          3625
    BL_BASRAH_KERO_JET_8      STRM_BASRAH_KERO_8       -1  PBAL_JET_8               1
    BL_BASRAH_KERO_JET_8      QUAL_JET_8               1175
    BL_BASRAH_KERO_DIESEL_P_8  STRM_BASRAH_KERO_8       -1  PBAL_DIESEL_P_8          1
    BL_BASRAH_KERO_DIESEL_P_8  QUAL_DIESEL_P_8          3325
    TSLACK_BASRAH_KERO_8      COST                     -180  TSTRM_BASRAH_KERO_8      -1
    TBL_BASRAH_KERO_GASOLINE_8  TSTRM_BASRAH_KERO_8      -1  PBAL_GASOLINE_8          1
    TBL_BASRAH_KERO_GASOLINE_8  QUAL_GASOLINE_8          97
    TBL_BASRAH_KERO_JET_8     TSTRM_BASRAH_KERO_8      -1  PBAL_JET_8               1
    TBL_BASRAH_KERO_JET_8     QUAL_JET_8               -2353
    TBL_BASRAH_KERO_DIESEL_P_8  TSTRM_BASRAH_KERO_8      -1  PBAL_DIESEL_P_8          1
    TBL_BASRAH_KERO_DIESEL_P_8  QUAL_DIESEL_P_8          -203
    SLACK_BASRAH_DIESEL_8     COST                     -180  STRM_BASRAH_DIESEL_8     -1
    HDT_BASRAH_DIESEL_8       COST                     -240  STRM_BASRAH_DIESEL_8     -1
    HDT_BASRAH_DIESEL_8       TSTRM_BASRAH_DIESEL_8    1  HDTCAP_8                 1
    BL_BASRAH_DIESEL_DIESEL_P_8  STRM_BASRAH_DIESEL_8     -1  PBAL_DIESEL_P_8          1
    BL_BASRAH_DIESEL_DIESEL_P_8  QUAL_DIESEL_P_8          13125
    BL_BASRAH_DIESEL_FUELOIL_8  STRM_BASRAH_DIESEL_8     -1  PBAL_FUELOIL_8           1
    BL_BASRAH_DIESEL_FUELOIL_8  QUAL_FUELOIL_8           -21525
    TSLACK_BASRAH_DIESEL_8    COST                     -180  TSTRM_BASRAH_DIESEL_8    -1
    TBL_BASRAH_DIESEL_DIESEL_P_8  TSTRM_BASRAH_DIESEL_8    -1  PBAL_DIESEL_P_8          1
    TBL_BASRAH_DIESEL_DIESEL_P_8  QUAL_DIESEL_P_8          189
    TBL_BASRAH_DIESEL_FUELOIL_8  TSTRM_BASRAH_DIESEL_8    -1  PBAL_FUELOIL_8           1
    TBL_BASRAH_DIESEL_FUELOIL_8  QUAL_FUELOIL_8           -34461
    SLACK_BASRAH_VGO_8        COST                     -180  STRM_BASRAH_VGO_8        -1
    HDT_BASRAH_VGO_8          COST                     -240  STRM_BASRAH_VGO_8        -1
    HDT_BASRAH_VGO_8          TSTRM_BASRAH_VGO_8       1  HDTCAP_8                 1
    FCC_BASRAH_8              COST                     -310  STRM_BASRAH_VGO_8        -1
    FCC_BASRAH_8              FSTRM_BASRAH_NAPHTHA_8   0.55  FSTRM_BASRAH_DIESEL_8    0.25
    FCC_BASRAH_8              FCCCAP_8                 1
    BL_BASRAH_VGO_DIESEL_P_8  STRM_BASRAH_VGO_8        -1  PBAL_DIESEL_P_8          1
    BL_BASRAH_VGO_DIESEL_P_8  QUAL_DIESEL_P_8          32725
    BL_BASRAH_VGO_FUELOIL_8   STRM_BASRAH_VGO_8        -1  PBAL_FUELOIL_8           1
    BL_BASRAH_VGO_FUELOIL_8   QUAL_FUELOIL_8           -1925
    TSLACK_BASRAH_VGO_8       COST                     -180  TSTRM_BASRAH_VGO_8       -1
    TBL_BASRAH_VGO_DIESEL_P_8  TSTRM_BASRAH_VGO_8       -1  PBAL_DIESEL_P_8          1
    TBL_BASRAH_VGO_DIESEL_P_8  QUAL_DIESEL_P_8          973
    TBL_BASRAH_VGO_FUELOIL_8  TSTRM_BASRAH_VGO_8       -1  PBAL_FUELOIL_8           1
    TBL_BASRAH_VGO_FUELOIL_8  QUAL_FUELOIL_8           -33677
    SLACK_BASRAH_RESIDUE_8    COST                     -180  STRM_BASRAH_RESIDUE_8    -1
    HDT_BASRAH_RESIDUE_8      COST                     -240  STRM_BASRAH_RESIDUE_8    -1
    HDT_BASRAH_RESIDUE_8      TSTRM_BASRAH_RESIDUE_8   1  HDTCAP_8                 1
    BL_BASRAH_RESIDUE_FUELOIL_8  STRM_BASRAH_RESIDUE_8    -1  PBAL_FUELOIL_8           1
    BL_BASRAH_RESIDUE_FUELOIL_8  QUAL_FUELOIL_8           28700
    TSLACK_BASRAH_RESIDUE_8   COST                     -180  TSTRM_BASRAH_RESIDUE_8   -1
    TBL_BASRAH_RESIDUE_FUELOIL_8  TSTRM_BASRAH_RESIDUE_8   -1  PBAL_FUELOIL_8           1
    TBL_BASRAH_RESIDUE_FUELOIL_8  QUAL_FUELOIL_8           -32452
    FSLACK_BASRAH_NAPHTHA_8   COST                     -180  FSTRM_BASRAH_NAPHTHA_8   -1
    FBL_BASRAH_NAPHTHA_GASOLINE_8  FSTRM_BASRAH_NAPHTHA_8   -1  PBAL_GASOLINE_8          1
    FBL_BASRAH_NAPHTHA_GASOLINE_8  QUAL_GASOLINE_8          121.5
    FBL_BASRAH_NAPHTHA_JET_8  FSTRM_BASRAH_NAPHTHA_8   -1  PBAL_JET_8               1
    FBL_BASRAH_NAPHTHA_JET_8  QUAL_JET_8               -2328.5
    FSLACK_BASRAH_DIESEL_8    COST                     -180  FSTRM_BASRAH_DIESEL_8    -1
    FBL_BASRAH_DIESEL_DIESEL_P_8  FSTRM_BASRAH_DIESEL_8    -1  PBAL_DIESEL_P_8          1
    FBL_BASRAH_DIESEL_DIESEL_P_8  QUAL_DIESEL_P_8          4366.25
    FBL_BASRAH_DIESEL_FUELOIL_8  FSTRM_BASRAH_DIESEL_8    -1  PBAL_FUELOIL_8           1
    FBL_BASRAH_DIESEL_FUELOIL_8  QUAL_FUELOIL_8           -30283.75
    BUY_URALS_8               COST                     -6260  CBAL_URALS_8             1
    INVC_URALS_8              COST                     -75.12  CBAL_URALS_8             -1
    INVC_URALS_8              CBAL_URALS_9             1
    CHG_URALS_8               COST                     -145  CBAL_URALS_8             -1
    CHG_URALS_8               CDUCAP_8                 1  STRM_URALS_NAPHTHA_8     0.2
    CHG_URALS_8               STRM_URALS_KERO_8        0.16  STRM_URALS_DIESEL_8      0.24
    CHG_URALS_8               STRM_URALS_VGO_8         0.23  STRM_URALS_RESIDUE_8     0.17
    SLACK_URALS_NAPHTHA_8     COST                     -180  STRM_URALS_NAPHTHA_8     -1
    HDT_URALS_NAPHTHA_8       COST                     -240  STRM_URALS_NAPHTHA_8     -1
    HDT_URALS_NAPHTHA_8       TSTRM_URALS_NAPHTHA_8    1  HDTCAP_8                 1
    BL_URALS_NAPHTHA_GASOLINE_8  STRM_URALS_NAPHTHA_8     -1  PBAL_GASOLINE_8          1
    BL_URALS_NAPHTHA_GASOLINE_8  QUAL_GASOLINE_8          226
    BL_URALS_NAPHTHA_JET_8    STRM_URALS_NAPHTHA_8     -1  PBAL_JET_8               1
    BL_URALS_NAPHTHA_JET_8    QUAL_JET_8               -2224
    TSLACK_URALS_NAPHTHA_8    COST                     -180  TSTRM_URALS_NAPHTHA_8    -1
    TBL_URALS_NAPHTHA_GASOLINE_8  TSTRM_URALS_NAPHTHA_8    -1  PBAL_GASOLINE_8          1
    TBL_URALS_NAPHTHA_GASOLINE_8  QUAL_GASOLINE_8          -38.96
    TBL_URALS_NAPHTHA_JET_8   TSTRM_URALS_NAPHTHA_8    -1  PBAL_JET_8               1
    TBL_URALS_NAPHTHA_JET_8   QUAL_JET_8               -2488.96
    SLACK_URALS_KERO_8        COST                     -180  STRM_URALS_KERO_8        -1
    HDT_URALS_KERO_8          COST                     -240  STRM_URALS_KERO_8        -1
    HDT_URALS_KERO_8          TSTRM_URALS_KERO_8       1  HDTCAP_8                 1
    BL_URALS_KERO_GASOLINE_8  STRM_URALS_KERO_8        -1  PBAL_GASOLINE_8          1
    BL_URALS_KERO_GASOLINE_8  QUAL_GASOLINE_8          2020
    BL_URALS_KERO_JET_8       STRM_URALS_KERO_8        -1  PBAL_JET_8               1
    BL_URALS_KERO_JET_8       QUAL_JET_8               -430
    BL_URALS_KERO_DIESEL_P_8  STRM_URALS_KERO_8        -1  PBAL_DIESEL_P_8          1
    BL_URALS_KERO_DIESEL_P_8  QUAL_DIESEL_P_8          1720
    TSLACK_URALS_KERO_8       COST                     -180  TSTRM_URALS_KERO_8       -1
    TBL_URALS_KERO_GASOLINE_8  TSTRM_URALS_KERO_8       -1  PBAL_GASOLINE_8          1
    TBL_URALS_KERO_GASOLINE_8  QUAL_GASOLINE_8          32.8
    TBL_URALS_KERO_JET_8      TSTRM_URALS_KERO_8       -1  PBAL_JET_8               1
    TBL_URALS_KERO_JET_8      QUAL_JET_8               -2417.2
    TBL_URALS_KERO_DIESEL_P_8  TSTRM_URALS_KERO_8       -1  PBAL_DIESEL_P_8          1
    TBL_URALS_KERO_DIESEL_P_8  QUAL_DIESEL_P_8          -267.2
    SLACK_URALS_DIESEL_8      COST                     -180  STRM_URALS_DIESEL_8      -1
    HDT_URALS_DIESEL_8        COST                     -240  STRM_URALS_DIESEL_8      -1
    HDT_URALS_DIESEL_8        TSTRM_URALS_DIESEL_8     1  HDTCAP_8                 1
    BL_URALS_DIESEL_DIESEL_P_8  STRM_URALS_DIESEL_8      -1  PBAL_DIESEL_P_8          1
    BL_URALS_DIESEL_DIESEL_P_8  QUAL_DIESEL_P_8          7240
    BL_URALS_DIESEL_FUELOIL_8  STRM_URALS_DIESEL_8      -1  PBAL_FUELOIL_8           1
    BL_URALS_DIESEL_FUELOIL_8  QUAL_FUELOIL_8           -27410
    TSLACK_URALS_DIESEL_8     COST                     -180  TSTRM_URALS_DIESEL_8     -1
    TBL_URALS_DIESEL_DIESEL_P_8  TSTRM_URALS_DIESEL_8     -1  PBAL_DIESEL_P_8          1
    TBL_URALS_DIESEL_DIESEL_P_8  QUAL_DIESEL_P_8          -46.4
    TBL_URALS_DIESEL_FUELOIL_8  TSTRM_URALS_DIESEL_8     -1  PBAL_FUELOIL_8           1
    TBL_URALS_DIESEL_FUELOIL_8  QUAL_FUELOIL_8           -34696.4
    SLACK_URALS_VGO_8         COST                     -180  STRM_URALS_VGO_8         -1
    HDT_URALS_VGO_8           COST                     -240  STRM_URALS_VGO_8         -1
    HDT_URALS_VGO_8           TSTRM_URALS_VGO_8        1  HDTCAP_8                 1
    FCC_URALS_8               COST                     -310  STRM_URALS_VGO_8         -1
    FCC_URALS_8               FSTRM_URALS_NAPHTHA_8    0.55  FSTRM_URALS_DIESEL_8     0.25
    FCC_URALS_8               FCCCAP_8                 1
    BL_URALS_VGO_DIESEL_P_8   STRM_URALS_VGO_8         -1  PBAL_DIESEL_P_8          1
    BL_URALS_VGO_DIESEL_P_8   QUAL_DIESEL_P_8          18280
    BL_URALS_VGO_FUELOIL_8    STRM_URALS_VGO_8         -1  PBAL_FUELOIL_8           1
    BL_URALS_VGO_FUELOIL_8    QUAL_FUELOIL_8           -16370
    TSLACK_URALS_VGO_8        COST                     -180  TSTRM_URALS_VGO_8        -1
    TBL_URALS_VGO_DIESEL_P_8  TSTRM_URALS_VGO_8        -1  PBAL_DIESEL_P_8          1
    TBL_URALS_VGO_DIESEL_P_8  QUAL_DIESEL_P_8          395.2
    TBL_URALS_VGO_FUELOIL_8   TSTRM_URALS_VGO_8        -1  PBAL_FUELOIL_8           1
    TBL_URALS_VGO_FUELOIL_8   QUAL_FUELOIL_8           -34254.8
    SLACK_URALS_RESIDUE_8     COST                     -180  STRM_URALS_RESIDUE_8     -1
    HDT_URALS_RESIDUE_8       COST                     -240  STRM_URALS_RESIDUE_8     -1
    HDT_URALS_RESIDUE_8       TSTRM_URALS_RESIDUE_8    1  HDTCAP_8                 1
    BL_URALS_RESIDUE_FUELOIL_8  STRM_URALS_RESIDUE_8     -1  PBAL_FUELOIL_8           1
    BL_URALS_RESIDUE_FUELOIL_8  QUAL_FUELOIL_8           880
    TSLACK_URALS_RESIDUE_8    COST                     -180  TSTRM_URALS_RESIDUE_8    -1
    TBL_URALS_RESIDUE_FUELOIL_8  TSTRM_URALS_RESIDUE_8    -1  PBAL_FUELOIL_8           1
    TBL_URALS_RESIDUE_FUELOIL_8  QUAL_FUELOIL_8           -33564.8
    FSLACK_URALS_NAPHTHA_8    COST                     -180  FSTRM_URALS_NAPHTHA_8    -1
    FBL_URALS_NAPHTHA_GASOLINE_8  FSTRM_URALS_NAPHTHA_8    -1  PBAL_GASOLINE_8          1
    FBL_URALS_NAPHTHA_GASOLINE_8  QUAL_GASOLINE_8          46.6
    FBL_URALS_NAPHTHA_JET_8   FSTRM_URALS_NAPHTHA_8    -1  PBAL_JET_8               1
    FBL_URALS_NAPHTHA_JET_8   QUAL_JET_8               -2403.4
    FSLACK_URALS_DIESEL_8     COST                     -180  FSTRM_URALS_DIESEL_8     -1
    FBL_URALS_DIESEL_DIESEL_P_8  FSTRM_URALS_DIESEL_8     -1  PBAL_DIESEL_P_8          1
    FBL_URALS_DIESEL_DIESEL_P_8  QUAL_DIESEL_P_8          2306.5
    FBL_URALS_DIESEL_FUELOIL_8  FSTRM_URALS_DIESEL_8     -1  PBAL_FUELOIL_8           1
    FBL_URALS_DIESEL_FUELOIL_8  QUAL_FUELOIL_8           -32343.5
    BUY_MURBAN_8              COST                     -6980  CBAL_MURBAN_8            1
    INVC_MURBAN_8             COST                     -83.76  CBAL_MURBAN_8            -1
    INVC_MURBAN_8             CBAL_MURBAN_9            1
    CHG_MURBAN_8              COST                     -145  CBAL_MURBAN_8            -1
    CHG_MURBAN_8              CDUCAP_8                 1  STRM_MURBAN_NAPHTHA_8    0.28
    CHG_MURBAN_8              STRM_MURBAN_KERO_8       0.19  STRM_MURBAN_DIESEL_8     0.23
    CHG_MURBAN_8              STRM_MURBAN_VGO_8        0.19  STRM_MURBAN_RESIDUE_8    0.11
    SLACK_MURBAN_NAPHTHA_8    COST                     -180  STRM_MURBAN_NAPHTHA_8    -1
    HDT_MURBAN_NAPHTHA_8      COST                     -240  STRM_MURBAN_NAPHTHA_8    -1
    HDT_MURBAN_NAPHTHA_8      TSTRM_MURBAN_NAPHTHA_8   1  HDTCAP_8                 1
    BL_MURBAN_NAPHTHA_GASOLINE_8  STRM_MURBAN_NAPHTHA_8    -1  PBAL_GASOLINE_8          1
    BL_MURBAN_NAPHTHA_GASOLINE_8  QUAL_GASOLINE_8          98
    BL_MURBAN_NAPHTHA_JET_8   STRM_MURBAN_NAPHTHA_8    -1  PBAL_JET_8               1
    BL_MURBAN_NAPHTHA_JET_8   QUAL_JET_8               -2352
    TSLACK_MURBAN_NAPHTHA_8   COST                     -180  TSTRM_MURBAN_NAPHTHA_8   -1
    TBL_MURBAN_NAPHTHA_GASOLINE_8  TSTRM_MURBAN_NAPHTHA_8   -1  PBAL_GASOLINE_8          1
    TBL_MURBAN_NAPHTHA_GASOLINE_8  QUAL_GASOLINE_8          -44.08
    TBL_MURBAN_NAPHTHA_JET_8  TSTRM_MURBAN_NAPHTHA_8   -1  PBAL_JET_8               1
    TBL_MURBAN_NAPHTHA_JET_8  QUAL_JET_8               -2494.08
    SLACK_MURBAN_KERO_8       COST                     -180  STRM_MURBAN_KERO_8       -1
    HDT_MURBAN_KERO_8         COST                     -240  STRM_MURBAN_KERO_8       -1
    HDT_MURBAN_KERO_8         TSTRM_MURBAN_KERO_8      1  HDTCAP_8                 1
    BL_MURBAN_KERO_GASOLINE_8  STRM_MURBAN_KERO_8       -1  PBAL_GASOLINE_8          1
    BL_MURBAN_KERO_GASOLINE_8  QUAL_GASOLINE_8          1060
    BL_MURBAN_KERO_JET_8      STRM_MURBAN_KERO_8       -1  PBAL_JET_8               1
    BL_MURBAN_KERO_JET_8      QUAL_JET_8               -1390
    BL_MURBAN_KERO_DIESEL_P_8  STRM_MURBAN_KERO_8       -1  PBAL_DIESEL_P_8          1
    BL_MURBAN_KERO_DIESEL_P_8  QUAL_DIESEL_P_8          760
    TSLACK_MURBAN_KERO_8      COST                     -180  TSTRM_MURBAN_KERO_8      -1
    TBL_MURBAN_KERO_GASOLINE_8  TSTRM_MURBAN_KERO_8      -1  PBAL_GASOLINE_8          1
    TBL_MURBAN_KERO_GASOLINE_8  QUAL_GASOLINE_8          -5.6
    TBL_MURBAN_KERO_JET_8     TSTRM_MURBAN_KERO_8      -1  PBAL_JET_8               1
    TBL_MURBAN_KERO_JET_8     QUAL_JET_8               -2455.6
    TBL_MURBAN_KERO_DIESEL_P_8  TSTRM_MURBAN_KERO_8      -1  PBAL_DIESEL_P_8          1
    TBL_MURBAN_KERO_DIESEL_P_8  QUAL_DIESEL_P_8          -305.6
    SLACK_MURBAN_DIESEL_8     COST                     -180  STRM_MURBAN_DIESEL_8     -1
    HDT_MURBAN_DIESEL_8       COST                     -240  STRM_MURBAN_DIESEL_8     -1
    HDT_MURBAN_DIESEL_8       TSTRM_MURBAN_DIESEL_8    1  HDTCAP_8                 1
    BL_MURBAN_DIESEL_DIESEL_P_8  STRM_MURBAN_DIESEL_8     -1  PBAL_DIESEL_P_8          1
    BL_MURBAN_DIESEL_DIESEL_P_8  QUAL_DIESEL_P_8          3720
    BL_MURBAN_DIESEL_FUELOIL_8  STRM_MURBAN_DIESEL_8     -1  PBAL_FUELOIL_8           1
    BL_MURBAN_DIESEL_FUELOIL_8  QUAL_FUELOIL_8           -30930
    TSLACK_MURBAN_DIESEL_8    COST                     -180  TSTRM_MURBAN_DIESEL_8    -1
    TBL_MURBAN_DIESEL_DIESEL_P_8  TSTRM_MURBAN_DIESEL_8    -1  PBAL_DIESEL_P_8          1
    TBL_MURBAN_DIESEL_DIESEL_P_8  QUAL_DIESEL_P_8          -187.2
    TBL_MURBAN_DIESEL_FUELOIL_8  TSTRM_MURBAN_DIESEL_8    -1  PBAL_FUELOIL_8           1
    TBL_MURBAN_DIESEL_FUELOIL_8  QUAL_FUELOIL_8           -34837.2
    SLACK_MURBAN_VGO_8        COST                     -180  STRM_MURBAN_VGO_8        -1
    HDT_MURBAN_VGO_8          COST                     -240  STRM_MURBAN_VGO_8        -1
    HDT_MURBAN_VGO_8          TSTRM_MURBAN_VGO_8       1  HDTCAP_8                 1
    FCC_MURBAN_8              COST                     -310  STRM_MURBAN_VGO_8        -1
    FCC_MURBAN_8              FSTRM_MURBAN_NAPHTHA_8   0.55  FSTRM_MURBAN_DIESEL_8    0.25
    FCC_MURBAN_8              FCCCAP_8                 1
    BL_MURBAN_VGO_DIESEL_P_8  STRM_MURBAN_VGO_8        -1  PBAL_DIESEL_P_8          1
    BL_MURBAN_VGO_DIESEL_P_8  QUAL_DIESEL_P_8          9640
    BL_MURBAN_VGO_FUELOIL_8   STRM_MURBAN_VGO_8        -1  PBAL_FUELOIL_8           1
    BL_MURBAN_VGO_FUELOIL_8   QUAL_FUELOIL_8           -25010
    TSLACK_MURBAN_VGO_8       COST                     -180  TSTRM_MURBAN_VGO_8       -1
    TBL_MURBAN_VGO_DIESEL_P_8  TSTRM_MURBAN_VGO_8       -1  PBAL_DIESEL_P_8          1
    TBL_MURBAN_VGO_DIESEL_P_8  QUAL_DIESEL_P_8          49.6
    TBL_MURBAN_VGO_FUELOIL_8  TSTRM_MURBAN_VGO_8       -1  PBAL_FUELOIL_8           1
    TBL_MURBAN_VGO_FUELOIL_8  QUAL_FUELOIL_8           -34600.4
    SLACK_MURBAN_RESIDUE_8    COST                     -180  STRM_MURBAN_RESIDUE_8    -1
    HDT_MURBAN_RESIDUE_8      COST                     -240  STRM_MURBAN_RESIDUE_8    -1
    HDT_MURBAN_RESIDUE_8      TSTRM_MURBAN_RESIDUE_8   1  HDTCAP_8                 1
    BL_MURBAN_RESIDUE_FUELOIL_8  STRM_MURBAN_RESIDUE_8    -1  PBAL_FUELOIL_8           1
    BL_MURBAN_RESIDUE_FUELOIL_8  QUAL_FUELOIL_8           -15760
    TSLACK_MURBAN_RESIDUE_8   COST                     -180  TSTRM_MURBAN_RESIDUE_8   -1
    TBL_MURBAN_RESIDUE_FUELOIL_8  TSTRM_MURBAN_RESIDUE_8   -1  PBAL_FUELOIL_8           1
    TBL_MURBAN_RESIDUE_FUELOIL_8  QUAL_FUELOIL_8           -34230.4
    FSLACK_MURBAN_NAPHTHA_8   COST                     -180  FSTRM_MURBAN_NAPHTHA_8   -1
    FBL_MURBAN_NAPHTHA_GASOLINE_8  FSTRM_MURBAN_NAPHTHA_8   -1  PBAL_GASOLINE_8          1
    FBL_MURBAN_NAPHTHA_GASOLINE_8  QUAL_GASOLINE_8          1.8
    FBL_MURBAN_NAPHTHA_JET_8  FSTRM_MURBAN_NAPHTHA_8   -1  PBAL_JET_8               1
    FBL_MURBAN_NAPHTHA_JET_8  QUAL_JET_8               -2448.2
    FSLACK_MURBAN_DIESEL_8    COST                     -180  FSTRM_MURBAN_DIESEL_8    -1
    FBL_MURBAN_DIESEL_DIESEL_P_8  FSTRM_MURBAN_DIESEL_8    -1  PBAL_DIESEL_P_8          1
    FBL_MURBAN_DIESEL_DIESEL_P_8  QUAL_DIESEL_P_8          1074.5
    FBL_MURBAN_DIESEL_FUELOIL_8  FSTRM_MURBAN_DIESEL_8    -1  PBAL_FUELOIL_8           1
    FBL_MURBAN_DIESEL_FUELOIL_8  QUAL_FUELOIL_8           -33575.5
    BUY_ES_SIDER_8            COST                     -6540  CBAL_ES_SIDER_8          1
    INVC_ES_SIDER_8           COST                     -78.48  CBAL_ES_SIDER_8          -1
    INVC_ES_SIDER_8           CBAL_ES_SIDER_9          1
    CHG_ES_SIDER_8            COST                     -145  CBAL_ES_SIDER_8          -1
    CHG_ES_SIDER_8            CDUCAP_8                 1  STRM_ES_SIDER_NAPHTHA_8  0.25
    CHG_ES_SIDER_8            STRM_ES_SIDER_KERO_8     0.18  STRM_ES_SIDER_DIESEL_8   0.25
    CHG_ES_SIDER_8            STRM_ES_SIDER_VGO_8      0.2  STRM_ES_SIDER_RESIDUE_8  0.12
    SLACK_ES_SIDER_NAPHTHA_8  COST                     -180  STRM_ES_SIDER_NAPHTHA_8  -1
    HDT_ES_SIDER_NAPHTHA_8    COST                     -240  STRM_ES_SIDER_NAPHTHA_8  -1
    HDT_ES_SIDER_NAPHTHA_8    TSTRM_ES_SIDER_NAPHTHA_8 1  HDTCAP_8                 1
    BL_ES_SIDER_NAPHTHA_GASOLINE_8  STRM_ES_SIDER_NAPHTHA_8  -1  PBAL_GASOLINE_8          1
    BL_ES_SIDER_NAPHTHA_GASOLINE_8  QUAL_GASOLINE_8          32
    BL_ES_SIDER_NAPHTHA_JET_8  STRM_ES_SIDER_NAPHTHA_8  -1  PBAL_JET_8               1
    BL_ES_SIDER_NAPHTHA_JET_8  QUAL_JET_8               -2418
    TSLACK_ES_SIDER_NAPHTHA_8  COST                     -180  TSTRM_ES_SIDER_NAPHTHA_8 -1
    TBL_ES_SIDER_NAPHTHA_GASOLINE_8  TSTRM_ES_SIDER_NAPHTHA_8 -1  PBAL_GASOLINE_8          1
    TBL_ES_SIDER_NAPHTHA_GASOLINE_8  QUAL_GASOLINE_8          -46.72
    TBL_ES_SIDER_NAPHTHA_JET_8  TSTRM_ES_SIDER_NAPHTHA_8 -1  PBAL_JET_8               1
    TBL_ES_SIDER_NAPHTHA_JET_8  QUAL_JET_8               -2496.72
    SLACK_ES_SIDER_KERO_8     COST                     -180  STRM_ES_SIDER_KERO_8     -1
    HDT_ES_SIDER_KERO_8       COST                     -240  STRM_ES_SIDER_KERO_8     -1
    HDT_ES_SIDER_KERO_8       TSTRM_ES_SIDER_KERO_8    1  HDTCAP_8                 1
    BL_ES_SIDER_KERO_GASOLINE_8  STRM_ES_SIDER_KERO_8     -1  PBAL_GASOLINE_8          1
    BL_ES_SIDER_KERO_GASOLINE_8  QUAL_GASOLINE_8          565
    BL_ES_SIDER_KERO_JET_8    STRM_ES_SIDER_KERO_8     -1  PBAL_JET_8               1
    BL_ES_SIDER_KERO_JET_8    QUAL_JET_8               -1885
    BL_ES_SIDER_KERO_DIESEL_P_8  STRM_ES_SIDER_KERO_8     -1  PBAL_DIESEL_P_8          1
    BL_ES_SIDER_KERO_DIESEL_P_8  QUAL_DIESEL_P_8          265
    TSLACK_ES_SIDER_KERO_8    COST                     -180  TSTRM_ES_SIDER_KERO_8    -1
    TBL_ES_SIDER_KERO_GASOLINE_8  TSTRM_ES_SIDER_KERO_8    -1  PBAL_GASOLINE_8          1
    TBL_ES_SIDER_KERO_GASOLINE_8  QUAL_GASOLINE_8          -25.4
    TBL_ES_SIDER_KERO_JET_8   TSTRM_ES_SIDER_KERO_8    -1  PBAL_JET_8               1
    TBL_ES_SIDER_KERO_JET_8   QUAL_JET_8               -2475.4
    TBL_ES_SIDER_KERO_DIESEL_P_8  TSTRM_ES_SIDER_KERO_8    -1  PBAL_DIESEL_P_8          1
    TBL_ES_SIDER_KERO_DIESEL_P_8  QUAL_DIESEL_P_8          -325.4
    SLACK_ES_SIDER_DIESEL_8   COST                     -180  STRM_ES_SIDER_DIESEL_8   -1
    HDT_ES_SIDER_DIESEL_8     COST                     -240  STRM_ES_SIDER_DIESEL_8   -1
    HDT_ES_SIDER_DIESEL_8     TSTRM_ES_SIDER_DIESEL_8  1  HDTCAP_8                 1
    BL_ES_SIDER_DIESEL_DIESEL_P_8  STRM_ES_SIDER_DIESEL_8   -1  PBAL_DIESEL_P_8          1
    BL_ES_SIDER_DIESEL_DIESEL_P_8  QUAL_DIESEL_P_8          1905
    BL_ES_SIDER_DIESEL_FUELOIL_8  STRM_ES_SIDER_DIESEL_8   -1  PBAL_FUELOIL_8           1
    BL_ES_SIDER_DIESEL_FUELOIL_8  QUAL_FUELOIL_8           -32745
    TSLACK_ES_SIDER_DIESEL_8  COST                     -180  TSTRM_ES_SIDER_DIESEL_8  -1
    TBL_ES_SIDER_DIESEL_DIESEL_P_8  TSTRM_ES_SIDER_DIESEL_8  -1  PBAL_DIESEL_P_8          1
    TBL_ES_SIDER_DIESEL_DIESEL_P_8  QUAL_DIESEL_P_8          -259.8
    TBL_ES_SIDER_DIESEL_FUELOIL_8  TSTRM_ES_SIDER_DIESEL_8  -1  PBAL_FUELOIL_8           1
    TBL_ES_SIDER_DIESEL_FUELOIL_8  QUAL_FUELOIL_8           -34909.8
    SLACK_ES_SIDER_VGO_8      COST                     -180  STRM_ES_SIDER_VGO_8      -1
    HDT_ES_SIDER_VGO_8        COST                     -240  STRM_ES_SIDER_VGO_8      -1
    HDT_ES_SIDER_VGO_8        TSTRM_ES_SIDER_VGO_8     1  HDTCAP_8                 1
    FCC_ES_SIDER_8            COST                     -310  STRM_ES_SIDER_VGO_8      -1
    FCC_ES_SIDER_8            FSTRM_ES_SIDER_NAPHTHA_8 0.55  FSTRM_ES_SIDER_DIESEL_8  0.25
    FCC_ES_SIDER_8            FCCCAP_8                 1
    BL_ES_SIDER_VGO_DIESEL_P_8  STRM_ES_SIDER_VGO_8      -1  PBAL_DIESEL_P_8          1
    BL_ES_SIDER_VGO_DIESEL_P_8  QUAL_DIESEL_P_8          5185
    BL_ES_SIDER_VGO_FUELOIL_8  STRM_ES_SIDER_VGO_8      -1  PBAL_FUELOIL_8           1
    BL_ES_SIDER_VGO_FUELOIL_8  QUAL_FUELOIL_8           -29465
    TSLACK_ES_SIDER_VGO_8     COST                     -180  TSTRM_ES_SIDER_VGO_8     -1
    TBL_ES_SIDER_VGO_DIESEL_P_8  TSTRM_ES_SIDER_VGO_8     -1  PBAL_DIESEL_P_8          1
    TBL_ES_SIDER_VGO_DIESEL_P_8  QUAL_DIESEL_P_8          -128.6
    TBL_ES_SIDER_VGO_FUELOIL_8  TSTRM_ES_SIDER_VGO_8     -1  PBAL_FUELOIL_8           1
    TBL_ES_SIDER_VGO_FUELOIL_8  QUAL_FUELOIL_8           -34778.6
    SLACK_ES_SIDER_RESIDUE_8  COST                     -180  STRM_ES_SIDER_RESIDUE_8  -1
    HDT_ES_SIDER_RESIDUE_8    COST                     -240  STRM_ES_SIDER_RESIDUE_8  -1
    HDT_ES_SIDER_RESIDUE_8    TSTRM_ES_SIDER_RESIDUE_8 1  HDTCAP_8                 1
    BL_ES_SIDER_RESIDUE_FUELOIL_8  STRM_ES_SIDER_RESIDUE_8  -1  PBAL_FUELOIL_8           1
    BL_ES_SIDER_RESIDUE_FUELOIL_8  QUAL_FUELOIL_8           -24340
    TSLACK_ES_SIDER_RESIDUE_8  COST                     -180  TSTRM_ES_SIDER_RESIDUE_8 -1
    TBL_ES_SIDER_RESIDUE_FUELOIL_8  TSTRM_ES_SIDER_RESIDUE_8 -1  PBAL_FUELOIL_8           1
    TBL_ES_SIDER_RESIDUE_FUELOIL_8  QUAL_FUELOIL_8           -34573.6
    FSLACK_ES_SIDER_NAPHTHA_8  COST                     -180  FSTRM_ES_SIDER_NAPHTHA_8 -1
    FBL_ES_SIDER_NAPHTHA_GASOLINE_8  FSTRM_ES_SIDER_NAPHTHA_8 -1  PBAL_GASOLINE_8          1
    FBL_ES_SIDER_NAPHTHA_GASOLINE_8  QUAL_GASOLINE_8          -21.3
    FBL_ES_SIDER_NAPHTHA_JET_8  FSTRM_ES_SIDER_NAPHTHA_8 -1  PBAL_JET_8               1
    FBL_ES_SIDER_NAPHTHA_JET_8  QUAL_JET_8               -2471.3
    FSLACK_ES_SIDER_DIESEL_8  COST                     -180  FSTRM_ES_SIDER_DIESEL_8  -1
    FBL_ES_SIDER_DIESEL_DIESEL_P_8  FSTRM_ES_SIDER_DIESEL_8  -1  PBAL_DIESEL_P_8          1
    FBL_ES_SIDER_DIESEL_DIESEL_P_8  QUAL_DIESEL_P_8          439.25
    FBL_ES_SIDER_DIESEL_FUELOIL_8  FSTRM_ES_SIDER_DIESEL_8  -1  PBAL_FUELOIL_8           1
    FBL_ES_SIDER_DIESEL_FUELOIL_8  QUAL_FUELOIL_8           -34210.75
    BUY_QUA_IBOE_8            COST                     -6890  CBAL_QUA_IBOE_8          1
    INVC_QUA_IBOE_8           COST                     -82.68  CBAL_QUA_IBOE_8          -1
    INVC_QUA_IBOE_8           CBAL_QUA_IBOE_9          1
    CHG_QUA_IBOE_8            COST                     -145  CBAL_QUA_IBOE_8          -1
    CHG_QUA_IBOE_8            CDUCAP_8                 1  STRM_QUA_IBOE_NAPHTHA_8  0.27
    CHG_QUA_IBOE_8            STRM_QUA_IBOE_KERO_8     0.2  STRM_QUA_IBOE_DIESEL_8   0.25
    CHG_QUA_IBOE_8            STRM_QUA_IBOE_VGO_8      0.18  STRM_QUA_IBOE_RESIDUE_8  0.1
    SLACK_QUA_IBOE_NAPHTHA_8  COST                     -180  STRM_QUA_IBOE_NAPHTHA_8  -1
    HDT_QUA_IBOE_NAPHTHA_8    COST                     -240  STRM_QUA_IBOE_NAPHTHA_8  -1
    HDT_QUA_IBOE_NAPHTHA_8    TSTRM_QUA_IBOE_NAPHTHA_8 1  HDTCAP_8                 1
    BL_QUA_IBOE_NAPHTHA_GASOLINE_8  STRM_QUA_IBOE_NAPHTHA_8  -1  PBAL_GASOLINE_8          1
    BL_QUA_IBOE_NAPHTHA_GASOLINE_8  QUAL_GASOLINE_8          -24
    BL_QUA_IBOE_NAPHTHA_JET_8  STRM_QUA_IBOE_NAPHTHA_8  -1  PBAL_JET_8               1
    BL_QUA_IBOE_NAPHTHA_JET_8  QUAL_JET_8               -2474
    TSLACK_QUA_IBOE_NAPHTHA_8  COST                     -180  TSTRM_QUA_IBOE_NAPHTHA_8 -1
    TBL_QUA_IBOE_NAPHTHA_GASOLINE_8  TSTRM_QUA_IBOE_NAPHTHA_8 -1  PBAL_GASOLINE_8          1
    TBL_QUA_IBOE_NAPHTHA_GASOLINE_8  QUAL_GASOLINE_8          -48.96
    TBL_QUA_IBOE_NAPHTHA_JET_8  TSTRM_QUA_IBOE_NAPHTHA_8 -1  PBAL_JET_8               1
    TBL_QUA_IBOE_NAPHTHA_JET_8  QUAL_JET_8               -2498.96
    SLACK_QUA_IBOE_KERO_8     COST                     -180  STRM_QUA_IBOE_KERO_8     -1
    HDT_QUA_IBOE_KERO_8       COST                     -240  STRM_QUA_IBOE_KERO_8     -1
    HDT_QUA_IBOE_KERO_8       TSTRM_QUA_IBOE_KERO_8    1  HDTCAP_8                 1
    BL_QUA_IBOE_KERO_GASOLINE_8  STRM_QUA_IBOE_KERO_8     -1  PBAL_GASOLINE_8          1
    BL_QUA_IBOE_KERO_GASOLINE_8  QUAL_GASOLINE_8          145
    BL_QUA_IBOE_KERO_JET_8    STRM_QUA_IBOE_KERO_8     -1  PBAL_JET_8               1
    BL_QUA_IBOE_KERO_JET_8    QUAL_JET_8               -2305
    BL_QUA_IBOE_KERO_DIESEL_P_8  STRM_QUA_IBOE_KERO_8     -1  PBAL_DIESEL_P_8          1
    BL_QUA_IBOE_KERO_DIESEL_P_8  QUAL_DIESEL_P_8          -155
    TSLACK_QUA_IBOE_KERO_8    COST                     -180  TSTRM_QUA_IBOE_KERO_8    -1
    TBL_QUA_IBOE_KERO_GASOLINE_8  TSTRM_QUA_IBOE_KERO_8    -1  PBAL_GASOLINE_8          1
    TBL_QUA_IBOE_KERO_GASOLINE_8  QUAL_GASOLINE_8          -42.2
    TBL_QUA_IBOE_KERO_JET_8   TSTRM_QUA_IBOE_KERO_8    -1  PBAL_JET_8               1
    TBL_QUA_IBOE_KERO_JET_8   QUAL_JET_8               -2492.2
    TBL_QUA_IBOE_KERO_DIESEL_P_8  TSTRM_QUA_IBOE_KERO_8    -1  PBAL_DIESEL_P_8          1
    TBL_QUA_IBOE_KERO_DIESEL_P_8  QUAL_DIESEL_P_8          -342.2
    SLACK_QUA_IBOE_DIESEL_8   COST                     -180  STRM_QUA_IBOE_DIESEL_8   -1
    HDT_QUA_IBOE_DIESEL_8     COST                     -240  STRM_QUA_IBOE_DIESEL_8   -1
    HDT_QUA_IBOE_DIESEL_8     TSTRM_QUA_IBOE_DIESEL_8  1  HDTCAP_8                 1
    BL_QUA_IBOE_DIESEL_DIESEL_P_8  STRM_QUA_IBOE_DIESEL_8   -1  PBAL_DIESEL_P_8          1
    BL_QUA_IBOE_DIESEL_DIESEL_P_8  QUAL_DIESEL_P_8          365
    BL_QUA_IBOE_DIESEL_FUELOIL_8  STRM_QUA_IBOE_DIESEL_8   -1  PBAL_FUELOIL_8           1
    BL_QUA_IBOE_DIESEL_FUELOIL_8  QUAL_FUELOIL_8           -34285
    TSLACK_QUA_IBOE_DIESEL_8  COST                     -180  TSTRM_QUA_IBOE_DIESEL_8  -1
    TBL_QUA_IBOE_DIESEL_DIESEL_P_8  TSTRM_QUA_IBOE_DIESEL_8  -1  PBAL_DIESEL_P_8          1
    TBL_QUA_IBOE_DIESEL_DIESEL_P_8  QUAL_DIESEL_P_8          -321.4
    TBL_QUA_IBOE_DIESEL_FUELOIL_8  TSTRM_QUA_IBOE_DIESEL_8  -1  PBAL_FUELOIL_8           1
    TBL_QUA_IBOE_DIESEL_FUELOIL_8  QUAL_FUELOIL_8           -34971.4
    SLACK_QUA_IBOE_VGO_8      COST                     -180  STRM_QUA_IBOE_VGO_8      -1
    HDT_QUA_IBOE_VGO_8        COST                     -240  STRM_QUA_IBOE_VGO_8      -1
    HDT_QUA_IBOE_VGO_8        TSTRM_QUA_IBOE_VGO_8     1  HDTCAP_8                 1
    FCC_QUA_IBOE_8            COST                     -310  STRM_QUA_IBOE_VGO_8      -1
    FCC_QUA_IBOE_8            FSTRM_QUA_IBOE_NAPHTHA_8 0.55  FSTRM_QUA_IBOE_DIESEL_8  0.25
    FCC_QUA_IBOE_8            FCCCAP_8                 1
    BL_QUA_IBOE_VGO_DIESEL_P_8  STRM_QUA_IBOE_VGO_8      -1  PBAL_DIESEL_P_8          1
    BL_QUA_IBOE_VGO_DIESEL_P_8  QUAL_DIESEL_P_8          1405
    BL_QUA_IBOE_VGO_FUELOIL_8  STRM_QUA_IBOE_VGO_8      -1  PBAL_FUELOIL_8           1
    BL_QUA_IBOE_VGO_FUELOIL_8  QUAL_FUELOIL_8           -33245
    TSLACK_QUA_IBOE_VGO_8     COST                     -180  TSTRM_QUA_IBOE_VGO_8     -1
    TBL_QUA_IBOE_VGO_DIESEL_P_8  TSTRM_QUA_IBOE_VGO_8     -1  PBAL_DIESEL_P_8          1
    TBL_QUA_IBOE_VGO_DIESEL_P_8  QUAL_DIESEL_P_8          -279.8
    TBL_QUA_IBOE_VGO_FUELOIL_8  TSTRM_QUA_IBOE_VGO_8     -1  PBAL_FUELOIL_8           1
    TBL_QUA_IBOE_VGO_FUELOIL_8  QUAL_FUELOIL_8           -34929.8
    SLACK_QUA_IBOE_RESIDUE_8  COST                     -180  STRM_QUA_IBOE_RESIDUE_8  -1
    HDT_QUA_IBOE_RESIDUE_8    COST                     -240  STRM_QUA_IBOE_RESIDUE_8  -1
    HDT_QUA_IBOE_RESIDUE_8    TSTRM_QUA_IBOE_RESIDUE_8 1  HDTCAP_8                 1
    BL_QUA_IBOE_RESIDUE_FUELOIL_8  STRM_QUA_IBOE_RESIDUE_8  -1  PBAL_FUELOIL_8           1
    BL_QUA_IBOE_RESIDUE_FUELOIL_8  QUAL_FUELOIL_8           -31620
    TSLACK_QUA_IBOE_RESIDUE_8  COST                     -180  TSTRM_QUA_IBOE_RESIDUE_8 -1
    TBL_QUA_IBOE_RESIDUE_FUELOIL_8  TSTRM_QUA_IBOE_RESIDUE_8 -1  PBAL_FUELOIL_8           1
    TBL_QUA_IBOE_RESIDUE_FUELOIL_8  QUAL_FUELOIL_8           -34864.8
    FSLACK_QUA_IBOE_NAPHTHA_8  COST                     -180  FSTRM_QUA_IBOE_NAPHTHA_8 -1
    FBL_QUA_IBOE_NAPHTHA_GASOLINE_8  FSTRM_QUA_IBOE_NAPHTHA_8 -1  PBAL_GASOLINE_8          1
    FBL_QUA_IBOE_NAPHTHA_GASOLINE_8  QUAL_GASOLINE_8          -40.9
    FBL_QUA_IBOE_NAPHTHA_JET_8  FSTRM_QUA_IBOE_NAPHTHA_8 -1  PBAL_JET_8               1
    FBL_QUA_IBOE_NAPHTHA_JET_8  QUAL_JET_8               -2490.9
    FSLACK_QUA_IBOE_DIESEL_8  COST                     -180  FSTRM_QUA_IBOE_DIESEL_8  -1
    FBL_QUA_IBOE_DIESEL_DIESEL_P_8  FSTRM_QUA_IBOE_DIESEL_8  -1  PBAL_DIESEL_P_8          1
    FBL_QUA_IBOE_DIESEL_DIESEL_P_8  QUAL_DIESEL_P_8          -99.75
    FBL_QUA_IBOE_DIESEL_FUELOIL_8  FSTRM_QUA_IBOE_DIESEL_8  -1  PBAL_FUELOIL_8           1
    FBL_QUA_IBOE_DIESEL_FUELOIL_8  QUAL_FUELOIL_8           -34749.75
    SELL_GASOLINE_8           COST                     9250  PBAL_GASOLINE_8          -1
    SELL_JET_8                COST                     8900  PBAL_JET_8               -1
    SELL_DIESEL_P_8           COST                     8600  PBAL_DIESEL_P_8          -1
    SELL_FUELOIL_8            COST                     4900  PBAL_FUELOIL_8           -1
    BUY_BOMBAY_HIGH_9         COST                     -6850  CBAL_BOMBAY_HIGH_9       1
    INVC_BOMBAY_HIGH_9        COST                     -82.2  CBAL_BOMBAY_HIGH_9       -1
    INVC_BOMBAY_HIGH_9        CBAL_BOMBAY_HIGH_10      1
    CHG_BOMBAY_HIGH_9         COST                     -145  CBAL_BOMBAY_HIGH_9       -1
    CHG_BOMBAY_HIGH_9         CDUCAP_9                 1  STRM_BOMBAY_HIGH_NAPHTHA_9 0.26
    CHG_BOMBAY_HIGH_9         STRM_BOMBAY_HIGH_KERO_9  0.18  STRM_BOMBAY_HIGH_DIESEL_9 0.24
    CHG_BOMBAY_HIGH_9         STRM_BOMBAY_HIGH_VGO_9   0.2  STRM_BOMBAY_HIGH_RESIDUE_9 0.12
    SLACK_BOMBAY_HIGH_NAPHTHA_9  COST                     -180  STRM_BOMBAY_HIGH_NAPHTHA_9 -1
    HDT_BOMBAY_HIGH_NAPHTHA_9  COST                     -240  STRM_BOMBAY_HIGH_NAPHTHA_9 -1
    HDT_BOMBAY_HIGH_NAPHTHA_9  TSTRM_BOMBAY_HIGH_NAPHTHA_9 1  HDTCAP_9                 1
    BL_BOMBAY_HIGH_NAPHTHA_GASOLINE_9  STRM_BOMBAY_HIGH_NAPHTHA_9 -1  PBAL_GASOLINE_9          1
    BL_BOMBAY_HIGH_NAPHTHA_GASOLINE_9  QUAL_GASOLINE_9          -32
    BL_BOMBAY_HIGH_NAPHTHA_JET_9  STRM_BOMBAY_HIGH_NAPHTHA_9 -1  PBAL_JET_9               1
    BL_BOMBAY_HIGH_NAPHTHA_JET_9  QUAL_JET_9               -2482
    TSLACK_BOMBAY_HIGH_NAPHTHA_9  COST                     -180  TSTRM_BOMBAY_HIGH_NAPHTHA_9 -1
    TBL_BOMBAY_HIGH_NAPHTHA_GASOLINE_9  TSTRM_BOMBAY_HIGH_NAPHTHA_9 -1  PBAL_GASOLINE_9          1
    TBL_BOMBAY_HIGH_NAPHTHA_GASOLINE_9  QUAL_GASOLINE_9          -49.28
    TBL_BOMBAY_HIGH_NAPHTHA_JET_9  TSTRM_BOMBAY_HIGH_NAPHTHA_9 -1  PBAL_JET_9               1
    TBL_BOMBAY_HIGH_NAPHTHA_JET_9  QUAL_JET_9               -2499.28
    SLACK_BOMBAY_HIGH_KERO_9  COST                     -180  STRM_BOMBAY_HIGH_KERO_9  -1
    HDT_BOMBAY_HIGH_KERO_9    COST                     -240  STRM_BOMBAY_HIGH_KERO_9  -1
    HDT_BOMBAY_HIGH_KERO_9    TSTRM_BOMBAY_HIGH_KERO_9 1  HDTCAP_9                 1
    BL_BOMBAY_HIGH_KERO_GASOLINE_9  STRM_BOMBAY_HIGH_KERO_9  -1  PBAL_GASOLINE_9          1
    BL_BOMBAY_HIGH_KERO_GASOLINE_9  QUAL_GASOLINE_9          85
    BL_BOMBAY_HIGH_KERO_JET_9  STRM_BOMBAY_HIGH_KERO_9  -1  PBAL_JET_9               1
    BL_BOMBAY_HIGH_KERO_JET_9  QUAL_JET_9               -2365
    BL_BOMBAY_HIGH_KERO_DIESEL_P_9  STRM_BOMBAY_HIGH_KERO_9  -1  PBAL_DIESEL_P_9          1
    BL_BOMBAY_HIGH_KERO_DIESEL_P_9  QUAL_DIESEL_P_9          -215
    TSLACK_BOMBAY_HIGH_KERO_9  COST                     -180  TSTRM_BOMBAY_HIGH_KERO_9 -1
    TBL_BOMBAY_HIGH_KERO_GASOLINE_9  TSTRM_BOMBAY_HIGH_KERO_9 -1  PBAL_GASOLINE_9          1
    TBL_BOMBAY_HIGH_KERO_GASOLINE_9  QUAL_GASOLINE_9          -44.6
    TBL_BOMBAY_HIGH_KERO_JET_9  TSTRM_BOMBAY_HIGH_KERO_9 -1  PBAL_JET_9               1
    TBL_BOMBAY_HIGH_KERO_JET_9  QUAL_JET_9               -2494.6
    TBL_BOMBAY_HIGH_KERO_DIESEL_P_9  TSTRM_BOMBAY_HIGH_KERO_9 -1  PBAL_DIESEL_P_9          1
    TBL_BOMBAY_HIGH_KERO_DIESEL_P_9  QUAL_DIESEL_P_9          -344.6
    SLACK_BOMBAY_HIGH_DIESEL_9  COST                     -180  STRM_BOMBAY_HIGH_DIESEL_9 -1
    HDT_BOMBAY_HIGH_DIESEL_9  COST                     -240  STRM_BOMBAY_HIGH_DIESEL_9 -1
    HDT_BOMBAY_HIGH_DIESEL_9  TSTRM_BOMBAY_HIGH_DIESEL_9 1  HDTCAP_9                 1
    BL_BOMBAY_HIGH_DIESEL_DIESEL_P_9  STRM_BOMBAY_HIGH_DIESEL_9 -1  PBAL_DIESEL_P_9          1
    BL_BOMBAY_HIGH_DIESEL_DIESEL_P_9  QUAL_DIESEL_P_9          145
    BL_BOMBAY_HIGH_DIESEL_FUELOIL_9  STRM_BOMBAY_HIGH_DIESEL_9 -1  PBAL_FUELOIL_9           1
    BL_BOMBAY_HIGH_DIESEL_FUELOIL_9  QUAL_FUELOIL_9           -34505
    TSLACK_BOMBAY_HIGH_DIESEL_9  COST                     -180  TSTRM_BOMBAY_HIGH_DIESEL_9 -1
    TBL_BOMBAY_HIGH_DIESEL_DIESEL_P_9  TSTRM_BOMBAY_HIGH_DIESEL_9 -1  PBAL_DIESEL_P_9          1
    TBL_BOMBAY_HIGH_DIESEL_DIESEL_P_9  QUAL_DIESEL_P_9          -330.2
    TBL_BOMBAY_HIGH_DIESEL_FUELOIL_9  TSTRM_BOMBAY_HIGH_DIESEL_9 -1  PBAL_FUELOIL_9           1
    TBL_BOMBAY_HIGH_DIESEL_FUELOIL_9  QUAL_FUELOIL_9           -34980.2
    SLACK_BOMBAY_HIGH_VGO_9   COST                     -180  STRM_BOMBAY_HIGH_VGO_9   -1
    HDT_BOMBAY_HIGH_VGO_9     COST                     -240  STRM_BOMBAY_HIGH_VGO_9   -1
    HDT_BOMBAY_HIGH_VGO_9     TSTRM_BOMBAY_HIGH_VGO_9  1  HDTCAP_9                 1
    FCC_BOMBAY_HIGH_9         COST                     -310  STRM_BOMBAY_HIGH_VGO_9   -1
    FCC_BOMBAY_HIGH_9         FSTRM_BOMBAY_HIGH_NAPHTHA_9 0.55  FSTRM_BOMBAY_HIGH_DIESEL_9 0.25
    FCC_BOMBAY_HIGH_9         FCCCAP_9                 1
    BL_BOMBAY_HIGH_VGO_DIESEL_P_9  STRM_BOMBAY_HIGH_VGO_9   -1  PBAL_DIESEL_P_9          1
    BL_BOMBAY_HIGH_VGO_DIESEL_P_9  QUAL_DIESEL_P_9          865
    BL_BOMBAY_HIGH_VGO_FUELOIL_9  STRM_BOMBAY_HIGH_VGO_9   -1  PBAL_FUELOIL_9           1
    BL_BOMBAY_HIGH_VGO_FUELOIL_9  QUAL_FUELOIL_9           -33785
    TSLACK_BOMBAY_HIGH_VGO_9  COST                     -180  TSTRM_BOMBAY_HIGH_VGO_9  -1
    TBL_BOMBAY_HIGH_VGO_DIESEL_P_9  TSTRM_BOMBAY_HIGH_VGO_9  -1  PBAL_DIESEL_P_9          1
    TBL_BOMBAY_HIGH_VGO_DIESEL_P_9  QUAL_DIESEL_P_9          -301.4
    TBL_BOMBAY_HIGH_VGO_FUELOIL_9  TSTRM_BOMBAY_HIGH_VGO_9  -1  PBAL_FUELOIL_9           1
    TBL_BOMBAY_HIGH_VGO_FUELOIL_9  QUAL_FUELOIL_9           -34951.4
    SLACK_BOMBAY_HIGH_RESIDUE_9  COST                     -180  STRM_BOMBAY_HIGH_RESIDUE_9 -1
    HDT_BOMBAY_HIGH_RESIDUE_9  COST                     -240  STRM_BOMBAY_HIGH_RESIDUE_9 -1
    HDT_BOMBAY_HIGH_RESIDUE_9  TSTRM_BOMBAY_HIGH_RESIDUE_9 1  HDTCAP_9                 1
    BL_BOMBAY_HIGH_RESIDUE_FUELOIL_9  STRM_BOMBAY_HIGH_RESIDUE_9 -1  PBAL_FUELOIL_9           1
    BL_BOMBAY_HIGH_RESIDUE_FUELOIL_9  QUAL_FUELOIL_9           -32660
    TSLACK_BOMBAY_HIGH_RESIDUE_9  COST                     -180  TSTRM_BOMBAY_HIGH_RESIDUE_9 -1
    TBL_BOMBAY_HIGH_RESIDUE_FUELOIL_9  TSTRM_BOMBAY_HIGH_RESIDUE_9 -1  PBAL_FUELOIL_9           1
    TBL_BOMBAY_HIGH_RESIDUE_FUELOIL_9  QUAL_FUELOIL_9           -34906.4
    FSLACK_BOMBAY_HIGH_NAPHTHA_9  COST                     -180  FSTRM_BOMBAY_HIGH_NAPHTHA_9 -1
    FBL_BOMBAY_HIGH_NAPHTHA_GASOLINE_9  FSTRM_BOMBAY_HIGH_NAPHTHA_9 -1  PBAL_GASOLINE_9          1
    FBL_BOMBAY_HIGH_NAPHTHA_GASOLINE_9  QUAL_GASOLINE_9          -43.7
    FBL_BOMBAY_HIGH_NAPHTHA_JET_9  FSTRM_BOMBAY_HIGH_NAPHTHA_9 -1  PBAL_JET_9               1
    FBL_BOMBAY_HIGH_NAPHTHA_JET_9  QUAL_JET_9               -2493.7
    FSLACK_BOMBAY_HIGH_DIESEL_9  COST                     -180  FSTRM_BOMBAY_HIGH_DIESEL_9 -1
    FBL_BOMBAY_HIGH_DIESEL_DIESEL_P_9  FSTRM_BOMBAY_HIGH_DIESEL_9 -1  PBAL_DIESEL_P_9          1
    FBL_BOMBAY_HIGH_DIESEL_DIESEL_P_9  QUAL_DIESEL_P_9          -176.75
    FBL_BOMBAY_HIGH_DIESEL_FUELOIL_9  FSTRM_BOMBAY_HIGH_DIESEL_9 -1  PBAL_FUELOIL_9           1
    FBL_BOMBAY_HIGH_DIESEL_FUELOIL_9  QUAL_FUELOIL_9           -34826.75
    BUY_ARAB_LIGHT_9          COST                     -6420  CBAL_ARAB_LIGHT_9        1
    INVC_ARAB_LIGHT_9         COST                     -77.04  CBAL_ARAB_LIGHT_9        -1
    INVC_ARAB_LIGHT_9         CBAL_ARAB_LIGHT_10       1
    CHG_ARAB_LIGHT_9          COST                     -145  CBAL_ARAB_LIGHT_9        -1
    CHG_ARAB_LIGHT_9          CDUCAP_9                 1  STRM_ARAB_LIGHT_NAPHTHA_9 0.22
    CHG_ARAB_LIGHT_9          STRM_ARAB_LIGHT_KERO_9   0.17  STRM_ARAB_LIGHT_DIESEL_9 0.23
    CHG_ARAB_LIGHT_9          STRM_ARAB_LIGHT_VGO_9    0.22  STRM_ARAB_LIGHT_RESIDUE_9 0.16
    SLACK_ARAB_LIGHT_NAPHTHA_9  COST                     -180  STRM_ARAB_LIGHT_NAPHTHA_9 -1
    HDT_ARAB_LIGHT_NAPHTHA_9  COST                     -240  STRM_ARAB_LIGHT_NAPHTHA_9 -1
    HDT_ARAB_LIGHT_NAPHTHA_9  TSTRM_ARAB_LIGHT_NAPHTHA_9 1  HDTCAP_9                 1
    BL_ARAB_LIGHT_NAPHTHA_GASOLINE_9  STRM_ARAB_LIGHT_NAPHTHA_9 -1  PBAL_GASOLINE_9          1
    BL_ARAB_LIGHT_NAPHTHA_GASOLINE_9  QUAL_GASOLINE_9          330
    BL_ARAB_LIGHT_NAPHTHA_JET_9  STRM_ARAB_LIGHT_NAPHTHA_9 -1  PBAL_JET_9               1
    BL_ARAB_LIGHT_NAPHTHA_JET_9  QUAL_JET_9               -2120
    TSLACK_ARAB_LIGHT_NAPHTHA_9  COST                     -180  TSTRM_ARAB_LIGHT_NAPHTHA_9 -1
    TBL_ARAB_LIGHT_NAPHTHA_GASOLINE_9  TSTRM_ARAB_LIGHT_NAPHTHA_9 -1  PBAL_GASOLINE_9          1
    TBL_ARAB_LIGHT_NAPHTHA_GASOLINE_9  QUAL_GASOLINE_9          -34.8
    TBL_ARAB_LIGHT_NAPHTHA_JET_9  TSTRM_ARAB_LIGHT_NAPHTHA_9 -1  PBAL_JET_9               1
    TBL_ARAB_LIGHT_NAPHTHA_JET_9  QUAL_JET_9               -2484.8
    SLACK_ARAB_LIGHT_KERO_9   COST                     -180  STRM_ARAB_LIGHT_KERO_9   -1
    HDT_ARAB_LIGHT_KERO_9     COST                     -240  STRM_ARAB_LIGHT_KERO_9   -1
    HDT_ARAB_LIGHT_KERO_9     TSTRM_ARAB_LIGHT_KERO_9  1  HDTCAP_9                 1
    BL_ARAB_LIGHT_KERO_GASOLINE_9  STRM_ARAB_LIGHT_KERO_9   -1  PBAL_GASOLINE_9          1
    BL_ARAB_LIGHT_KERO_GASOLINE_9  QUAL_GASOLINE_9          2800
    BL_ARAB_LIGHT_KERO_JET_9  STRM_ARAB_LIGHT_KERO_9   -1  PBAL_JET_9               1
    BL_ARAB_LIGHT_KERO_JET_9  QUAL_JET_9               350
    BL_ARAB_LIGHT_KERO_DIESEL_P_9  STRM_ARAB_LIGHT_KERO_9   -1  PBAL_DIESEL_P_9          1
    BL_ARAB_LIGHT_KERO_DIESEL_P_9  QUAL_DIESEL_P_9          2500
    TSLACK_ARAB_LIGHT_KERO_9  COST                     -180  TSTRM_ARAB_LIGHT_KERO_9  -1
    TBL_ARAB_LIGHT_KERO_GASOLINE_9  TSTRM_ARAB_LIGHT_KERO_9  -1  PBAL_GASOLINE_9          1
    TBL_ARAB_LIGHT_KERO_GASOLINE_9  QUAL_GASOLINE_9          64
    TBL_ARAB_LIGHT_KERO_JET_9  TSTRM_ARAB_LIGHT_KERO_9  -1  PBAL_JET_9               1
    TBL_ARAB_LIGHT_KERO_JET_9  QUAL_JET_9               -2386
    TBL_ARAB_LIGHT_KERO_DIESEL_P_9  TSTRM_ARAB_LIGHT_KERO_9  -1  PBAL_DIESEL_P_9          1
    TBL_ARAB_LIGHT_KERO_DIESEL_P_9  QUAL_DIESEL_P_9          -236
    SLACK_ARAB_LIGHT_DIESEL_9  COST                     -180  STRM_ARAB_LIGHT_DIESEL_9 -1
    HDT_ARAB_LIGHT_DIESEL_9   COST                     -240  STRM_ARAB_LIGHT_DIESEL_9 -1
    HDT_ARAB_LIGHT_DIESEL_9   TSTRM_ARAB_LIGHT_DIESEL_9 1  HDTCAP_9                 1
    BL_ARAB_LIGHT_DIESEL_DIESEL_P_9  STRM_ARAB_LIGHT_DIESEL_9 -1  PBAL_DIESEL_P_9          1
    BL_ARAB_LIGHT_DIESEL_DIESEL_P_9  QUAL_DIESEL_P_9          10100
    BL_ARAB_LIGHT_DIESEL_FUELOIL_9  STRM_ARAB_LIGHT_DIESEL_9 -1  PBAL_FUELOIL_9           1
    BL_ARAB_LIGHT_DIESEL_FUELOIL_9  QUAL_FUELOIL_9           -24550
    TSLACK_ARAB_LIGHT_DIESEL_9  COST                     -180  TSTRM_ARAB_LIGHT_DIESEL_9 -1
    TBL_ARAB_LIGHT_DIESEL_DIESEL_P_9  TSTRM_ARAB_LIGHT_DIESEL_9 -1  PBAL_DIESEL_P_9          1
    TBL_ARAB_LIGHT_DIESEL_DIESEL_P_9  QUAL_DIESEL_P_9          68
    TBL_ARAB_LIGHT_DIESEL_FUELOIL_9  TSTRM_ARAB_LIGHT_DIESEL_9 -1  PBAL_FUELOIL_9           1
    TBL_ARAB_LIGHT_DIESEL_FUELOIL_9  QUAL_FUELOIL_9           -34582
    SLACK_ARAB_LIGHT_VGO_9    COST                     -180  STRM_ARAB_LIGHT_VGO_9    -1
    HDT_ARAB_LIGHT_VGO_9      COST                     -240  STRM_ARAB_LIGHT_VGO_9    -1
    HDT_ARAB_LIGHT_VGO_9      TSTRM_ARAB_LIGHT_VGO_9   1  HDTCAP_9                 1
    FCC_ARAB_LIGHT_9          COST                     -310  STRM_ARAB_LIGHT_VGO_9    -1
    FCC_ARAB_LIGHT_9          FSTRM_ARAB_LIGHT_NAPHTHA_9 0.55  FSTRM_ARAB_LIGHT_DIESEL_9 0.25
    FCC_ARAB_LIGHT_9          FCCCAP_9                 1
    BL_ARAB_LIGHT_VGO_DIESEL_P_9  STRM_ARAB_LIGHT_VGO_9    -1  PBAL_DIESEL_P_9          1
    BL_ARAB_LIGHT_VGO_DIESEL_P_9  QUAL_DIESEL_P_9          25300
    BL_ARAB_LIGHT_VGO_FUELOIL_9  STRM_ARAB_LIGHT_VGO_9    -1  PBAL_FUELOIL_9           1
    BL_ARAB_LIGHT_VGO_FUELOIL_9  QUAL_FUELOIL_9           -9350
    TSLACK_ARAB_LIGHT_VGO_9   COST                     -180  TSTRM_ARAB_LIGHT_VGO_9   -1
    TBL_ARAB_LIGHT_VGO_DIESEL_P_9  TSTRM_ARAB_LIGHT_VGO_9   -1  PBAL_DIESEL_P_9          1
    TBL_ARAB_LIGHT_VGO_DIESEL_P_9  QUAL_DIESEL_P_9          676
    TBL_ARAB_LIGHT_VGO_FUELOIL_9  TSTRM_ARAB_LIGHT_VGO_9   -1  PBAL_FUELOIL_9           1
    TBL_ARAB_LIGHT_VGO_FUELOIL_9  QUAL_FUELOIL_9           -33974
    SLACK_ARAB_LIGHT_RESIDUE_9  COST                     -180  STRM_ARAB_LIGHT_RESIDUE_9 -1
    HDT_ARAB_LIGHT_RESIDUE_9  COST                     -240  STRM_ARAB_LIGHT_RESIDUE_9 -1
    HDT_ARAB_LIGHT_RESIDUE_9  TSTRM_ARAB_LIGHT_RESIDUE_9 1  HDTCAP_9                 1
    BL_ARAB_LIGHT_RESIDUE_FUELOIL_9  STRM_ARAB_LIGHT_RESIDUE_9 -1  PBAL_FUELOIL_9           1
    BL_ARAB_LIGHT_RESIDUE_FUELOIL_9  QUAL_FUELOIL_9           14400
    TSLACK_ARAB_LIGHT_RESIDUE_9  COST                     -180  TSTRM_ARAB_LIGHT_RESIDUE_9 -1
    TBL_ARAB_LIGHT_RESIDUE_FUELOIL_9  TSTRM_ARAB_LIGHT_RESIDUE_9 -1  PBAL_FUELOIL_9           1
    TBL_ARAB_LIGHT_RESIDUE_FUELOIL_9  QUAL_FUELOIL_9           -33024
    FSLACK_ARAB_LIGHT_NAPHTHA_9  COST                     -180  FSTRM_ARAB_LIGHT_NAPHTHA_9 -1
    FBL_ARAB_LIGHT_NAPHTHA_GASOLINE_9  FSTRM_ARAB_LIGHT_NAPHTHA_9 -1  PBAL_GASOLINE_9          1
    FBL_ARAB_LIGHT_NAPHTHA_GASOLINE_9  QUAL_GASOLINE_9          83
    FBL_ARAB_LIGHT_NAPHTHA_JET_9  FSTRM_ARAB_LIGHT_NAPHTHA_9 -1  PBAL_JET_9               1
    FBL_ARAB_LIGHT_NAPHTHA_JET_9  QUAL_JET_9               -2367
    FSLACK_ARAB_LIGHT_DIESEL_9  COST                     -180  FSTRM_ARAB_LIGHT_DIESEL_9 -1
    FBL_ARAB_LIGHT_DIESEL_DIESEL_P_9  FSTRM_ARAB_LIGHT_DIESEL_9 -1  PBAL_DIESEL_P_9          1
    FBL_ARAB_LIGHT_DIESEL_DIESEL_P_9  QUAL_DIESEL_P_9          3307.5
    FBL_ARAB_LIGHT_DIESEL_FUELOIL_9  FSTRM_ARAB_LIGHT_DIESEL_9 -1  PBAL_FUELOIL_9           1
    FBL_ARAB_LIGHT_DIESEL_FUELOIL_9  QUAL_FUELOIL_9           -31342.5
    BUY_ARAB_HEAVY_9          COST                     -5980  CBAL_ARAB_HEAVY_9        1
    INVC_ARAB_HEAVY_9         COST                     -71.76  CBAL_ARAB_HEAVY_9        -1
    INVC_ARAB_HEAVY_9         CBAL_ARAB_HEAVY_10       1
    CHG_ARAB_HEAVY_9          COST                     -145  CBAL_ARAB_HEAVY_9        -1
    CHG_ARAB_HEAVY_9          CDUCAP_9                 1  STRM_ARAB_HEAVY_NAPHTHA_9 0.16
    CHG_ARAB_HEAVY_9          STRM_ARAB_HEAVY_KERO_9   0.14  STRM_ARAB_HEAVY_DIESEL_9 0.21
    CHG_ARAB_HEAVY_9          STRM_ARAB_HEAVY_VGO_9    0.25  STRM_ARAB_HEAVY_RESIDUE_9 0.24
    SLACK_ARAB_HEAVY_NAPHTHA_9  COST                     -180  STRM_ARAB_HEAVY_NAPHTHA_9 -1
    HDT_ARAB_HEAVY_NAPHTHA_9  COST                     -240  STRM_ARAB_HEAVY_NAPHTHA_9 -1
    HDT_ARAB_HEAVY_NAPHTHA_9  TSTRM_ARAB_HEAVY_NAPHTHA_9 1  HDTCAP_9                 1
    BL_ARAB_HEAVY_NAPHTHA_GASOLINE_9  STRM_ARAB_HEAVY_NAPHTHA_9 -1  PBAL_GASOLINE_9          1
    BL_ARAB_HEAVY_NAPHTHA_GASOLINE_9  QUAL_GASOLINE_9          530
    BL_ARAB_HEAVY_NAPHTHA_JET_9  STRM_ARAB_HEAVY_NAPHTHA_9 -1  PBAL_JET_9               1
    BL_ARAB_HEAVY_NAPHTHA_JET_9  QUAL_JET_9               -1920
    TSLACK_ARAB_HEAVY_NAPHTHA_9  COST                     -180  TSTRM_ARAB_HEAVY_NAPHTHA_9 -1
    TBL_ARAB_HEAVY_NAPHTHA_GASOLINE_9  TSTRM_ARAB_HEAVY_NAPHTHA_9 -1  PBAL_GASOLINE_9          1
    TBL_ARAB_HEAVY_NAPHTHA_GASOLINE_9  QUAL_GASOLINE_9          -26.8
    TBL_ARAB_HEAVY_NAPHTHA_JET_9  TSTRM_ARAB_HEAVY_NAPHTHA_9 -1  PBAL_JET_9               1
    TBL_ARAB_HEAVY_NAPHTHA_JET_9  QUAL_JET_9               -2476.8
    SLACK_ARAB_HEAVY_KERO_9   COST                     -180  STRM_ARAB_HEAVY_KERO_9   -1
    HDT_ARAB_HEAVY_KERO_9     COST                     -240  STRM_ARAB_HEAVY_KERO_9   -1
    HDT_ARAB_HEAVY_KERO_9     TSTRM_ARAB_HEAVY_KERO_9  1  HDTCAP_9                 1
    BL_ARAB_HEAVY_KERO_GASOLINE_9  STRM_ARAB_HEAVY_KERO_9   -1  PBAL_GASOLINE_9          1
    BL_ARAB_HEAVY_KERO_GASOLINE_9  QUAL_GASOLINE_9          4300
    BL_ARAB_HEAVY_KERO_JET_9  STRM_ARAB_HEAVY_KERO_9   -1  PBAL_JET_9               1
    BL_ARAB_HEAVY_KERO_JET_9  QUAL_JET_9               1850
    BL_ARAB_HEAVY_KERO_DIESEL_P_9  STRM_ARAB_HEAVY_KERO_9   -1  PBAL_DIESEL_P_9          1
    BL_ARAB_HEAVY_KERO_DIESEL_P_9  QUAL_DIESEL_P_9          4000
    TSLACK_ARAB_HEAVY_KERO_9  COST                     -180  TSTRM_ARAB_HEAVY_KERO_9  -1
    TBL_ARAB_HEAVY_KERO_GASOLINE_9  TSTRM_ARAB_HEAVY_KERO_9  -1  PBAL_GASOLINE_9          1
    TBL_ARAB_HEAVY_KERO_GASOLINE_9  QUAL_GASOLINE_9          124
    TBL_ARAB_HEAVY_KERO_JET_9  TSTRM_ARAB_HEAVY_KERO_9  -1  PBAL_JET_9               1
    TBL_ARAB_HEAVY_KERO_JET_9  QUAL_JET_9               -2326
    TBL_ARAB_HEAVY_KERO_DIESEL_P_9  TSTRM_ARAB_HEAVY_KERO_9  -1  PBAL_DIESEL_P_9          1
    TBL_ARAB_HEAVY_KERO_DIESEL_P_9  QUAL_DIESEL_P_9          -176
    SLACK_ARAB_HEAVY_DIESEL_9  COST                     -180  STRM_ARAB_HEAVY_DIESEL_9 -1
    HDT_ARAB_HEAVY_DIESEL_9   COST                     -240  STRM_ARAB_HEAVY_DIESEL_9 -1
    HDT_ARAB_HEAVY_DIESEL_9   TSTRM_ARAB_HEAVY_DIESEL_9 1  HDTCAP_9                 1
    BL_ARAB_HEAVY_DIESEL_DIESEL_P_9  STRM_ARAB_HEAVY_DIESEL_9 -1  PBAL_DIESEL_P_9          1
    BL_ARAB_HEAVY_DIESEL_DIESEL_P_9  QUAL_DIESEL_P_9          15600
    BL_ARAB_HEAVY_DIESEL_FUELOIL_9  STRM_ARAB_HEAVY_DIESEL_9 -1  PBAL_FUELOIL_9           1
    BL_ARAB_HEAVY_DIESEL_FUELOIL_9  QUAL_FUELOIL_9           -19050
    TSLACK_ARAB_HEAVY_DIESEL_9  COST                     -180  TSTRM_ARAB_HEAVY_DIESEL_9 -1
    TBL_ARAB_HEAVY_DIESEL_DIESEL_P_9  TSTRM_ARAB_HEAVY_DIESEL_9 -1  PBAL_DIESEL_P_9          1
    TBL_ARAB_HEAVY_DIESEL_DIESEL_P_9  QUAL_DIESEL_P_9          288
    TBL_ARAB_HEAVY_DIESEL_FUELOIL_9  TSTRM_ARAB_HEAVY_DIESEL_9 -1  PBAL_FUELOIL_9           1
    TBL_ARAB_HEAVY_DIESEL_FUELOIL_9  QUAL_FUELOIL_9           -34362
    SLACK_ARAB_HEAVY_VGO_9    COST                     -180  STRM_ARAB_HEAVY_VGO_9    -1
    HDT_ARAB_HEAVY_VGO_9      COST                     -240  STRM_ARAB_HEAVY_VGO_9    -1
    HDT_ARAB_HEAVY_VGO_9      TSTRM_ARAB_HEAVY_VGO_9   1  HDTCAP_9                 1
    FCC_ARAB_HEAVY_9          COST                     -310  STRM_ARAB_HEAVY_VGO_9    -1
    FCC_ARAB_HEAVY_9          FSTRM_ARAB_HEAVY_NAPHTHA_9 0.55  FSTRM_ARAB_HEAVY_DIESEL_9 0.25
    FCC_ARAB_HEAVY_9          FCCCAP_9                 1
    BL_ARAB_HEAVY_VGO_DIESEL_P_9  STRM_ARAB_HEAVY_VGO_9    -1  PBAL_DIESEL_P_9          1
    BL_ARAB_HEAVY_VGO_DIESEL_P_9  QUAL_DIESEL_P_9          38800
    BL_ARAB_HEAVY_VGO_FUELOIL_9  STRM_ARAB_HEAVY_VGO_9    -1  PBAL_FUELOIL_9           1
    BL_ARAB_HEAVY_VGO_FUELOIL_9  QUAL_FUELOIL_9           4150
    TSLACK_ARAB_HEAVY_VGO_9   COST                     -180  TSTRM_ARAB_HEAVY_VGO_9   -1
    TBL_ARAB_HEAVY_VGO_DIESEL_P_9  TSTRM_ARAB_HEAVY_VGO_9   -1  PBAL_DIESEL_P_9          1
    TBL_ARAB_HEAVY_VGO_DIESEL_P_9  QUAL_DIESEL_P_9          1216
    TBL_ARAB_HEAVY_VGO_FUELOIL_9  TSTRM_ARAB_HEAVY_VGO_9   -1  PBAL_FUELOIL_9           1
    TBL_ARAB_HEAVY_VGO_FUELOIL_9  QUAL_FUELOIL_9           -33434
    SLACK_ARAB_HEAVY_RESIDUE_9  COST                     -180  STRM_ARAB_HEAVY_RESIDUE_9 -1
    HDT_ARAB_HEAVY_RESIDUE_9  COST                     -240  STRM_ARAB_HEAVY_RESIDUE_9 -1
    HDT_ARAB_HEAVY_RESIDUE_9  TSTRM_ARAB_HEAVY_RESIDUE_9 1  HDTCAP_9                 1
    BL_ARAB_HEAVY_RESIDUE_FUELOIL_9  STRM_ARAB_HEAVY_RESIDUE_9 -1  PBAL_FUELOIL_9           1
    BL_ARAB_HEAVY_RESIDUE_FUELOIL_9  QUAL_FUELOIL_9           40400
    TSLACK_ARAB_HEAVY_RESIDUE_9  COST                     -180  TSTRM_ARAB_HEAVY_RESIDUE_9 -1
    TBL_ARAB_HEAVY_RESIDUE_FUELOIL_9  TSTRM_ARAB_HEAVY_RESIDUE_9 -1  PBAL_FUELOIL_9           1
    TBL_ARAB_HEAVY_RESIDUE_FUELOIL_9  QUAL_FUELOIL_9           -31984
    FSLACK_ARAB_HEAVY_NAPHTHA_9  COST                     -180  FSTRM_ARAB_HEAVY_NAPHTHA_9 -1
    FBL_ARAB_HEAVY_NAPHTHA_GASOLINE_9  FSTRM_ARAB_HEAVY_NAPHTHA_9 -1  PBAL_GASOLINE_9          1
    FBL_ARAB_HEAVY_NAPHTHA_GASOLINE_9  QUAL_GASOLINE_9          153
    FBL_ARAB_HEAVY_NAPHTHA_JET_9  FSTRM_ARAB_HEAVY_NAPHTHA_9 -1  PBAL_JET_9               1
    FBL_ARAB_HEAVY_NAPHTHA_JET_9  QUAL_JET_9               -2297
    FSLACK_ARAB_HEAVY_DIESEL_9  COST                     -180  FSTRM_ARAB_HEAVY_DIESEL_9 -1
    FBL_ARAB_HEAVY_DIESEL_DIESEL_P_9  FSTRM_ARAB_HEAVY_DIESEL_9 -1  PBAL_DIESEL_P_9          1
    FBL_ARAB_HEAVY_DIESEL_DIESEL_P_9  QUAL_DIESEL_P_9          5232.5
    FBL_ARAB_HEAVY_DIESEL_FUELOIL_9  FSTRM_ARAB_HEAVY_DIESEL_9 -1  PBAL_FUELOIL_9           1
    FBL_ARAB_HEAVY_DIESEL_FUELOIL_9  QUAL_FUELOIL_9           -29417.5
    BUY_BASRAH_9              COST                     -6100  CBAL_BASRAH_9            1
    INVC_BASRAH_9             COST                     -73.2  CBAL_BASRAH_9            -1
    INVC_BASRAH_9             CBAL_BASRAH_10           1
    CHG_BASRAH_9              COST                     -145  CBAL_BASRAH_9            -1
    CHG_BASRAH_9              CDUCAP_9                 1  STRM_BASRAH_NAPHTHA_9    0.18
    CHG_BASRAH_9              STRM_BASRAH_KERO_9       0.15  STRM_BASRAH_DIESEL_9     0.22
    CHG_BASRAH_9              STRM_BASRAH_VGO_9        0.24  STRM_BASRAH_RESIDUE_9    0.21
    SLACK_BASRAH_NAPHTHA_9    COST                     -180  STRM_BASRAH_NAPHTHA_9    -1
    HDT_BASRAH_NAPHTHA_9      COST                     -240  STRM_BASRAH_NAPHTHA_9    -1
    HDT_BASRAH_NAPHTHA_9      TSTRM_BASRAH_NAPHTHA_9   1  HDTCAP_9                 1
    BL_BASRAH_NAPHTHA_GASOLINE_9  STRM_BASRAH_NAPHTHA_9    -1  PBAL_GASOLINE_9          1
    BL_BASRAH_NAPHTHA_GASOLINE_9  QUAL_GASOLINE_9          440
    BL_BASRAH_NAPHTHA_JET_9   STRM_BASRAH_NAPHTHA_9    -1  PBAL_JET_9               1
    BL_BASRAH_NAPHTHA_JET_9   QUAL_JET_9               -2010
    TSLACK_BASRAH_NAPHTHA_9   COST                     -180  TSTRM_BASRAH_NAPHTHA_9   -1
    TBL_BASRAH_NAPHTHA_GASOLINE_9  TSTRM_BASRAH_NAPHTHA_9   -1  PBAL_GASOLINE_9          1
    TBL_BASRAH_NAPHTHA_GASOLINE_9  QUAL_GASOLINE_9          -30.4
    TBL_BASRAH_NAPHTHA_JET_9  TSTRM_BASRAH_NAPHTHA_9   -1  PBAL_JET_9               1
    TBL_BASRAH_NAPHTHA_JET_9  QUAL_JET_9               -2480.4
    SLACK_BASRAH_KERO_9       COST                     -180  STRM_BASRAH_KERO_9       -1
    HDT_BASRAH_KERO_9         COST                     -240  STRM_BASRAH_KERO_9       -1
    HDT_BASRAH_KERO_9         TSTRM_BASRAH_KERO_9      1  HDTCAP_9                 1
    BL_BASRAH_KERO_GASOLINE_9  STRM_BASRAH_KERO_9       -1  PBAL_GASOLINE_9          1
    BL_BASRAH_KERO_GASOLINE_9  QUAL_GASOLINE_9          3625
    BL_BASRAH_KERO_JET_9      STRM_BASRAH_KERO_9       -1  PBAL_JET_9               1
    BL_BASRAH_KERO_JET_9      QUAL_JET_9               1175
    BL_BASRAH_KERO_DIESEL_P_9  STRM_BASRAH_KERO_9       -1  PBAL_DIESEL_P_9          1
    BL_BASRAH_KERO_DIESEL_P_9  QUAL_DIESEL_P_9          3325
    TSLACK_BASRAH_KERO_9      COST                     -180  TSTRM_BASRAH_KERO_9      -1
    TBL_BASRAH_KERO_GASOLINE_9  TSTRM_BASRAH_KERO_9      -1  PBAL_GASOLINE_9          1
    TBL_BASRAH_KERO_GASOLINE_9  QUAL_GASOLINE_9          97
    TBL_BASRAH_KERO_JET_9     TSTRM_BASRAH_KERO_9      -1  PBAL_JET_9               1
    TBL_BASRAH_KERO_JET_9     QUAL_JET_9               -2353
    TBL_BASRAH_KERO_DIESEL_P_9  TSTRM_BASRAH_KERO_9      -1  PBAL_DIESEL_P_9          1
    TBL_BASRAH_KERO_DIESEL_P_9  QUAL_DIESEL_P_9          -203
    SLACK_BASRAH_DIESEL_9     COST                     -180  STRM_BASRAH_DIESEL_9     -1
    HDT_BASRAH_DIESEL_9       COST                     -240  STRM_BASRAH_DIESEL_9     -1
    HDT_BASRAH_DIESEL_9       TSTRM_BASRAH_DIESEL_9    1  HDTCAP_9                 1
    BL_BASRAH_DIESEL_DIESEL_P_9  STRM_BASRAH_DIESEL_9     -1  PBAL_DIESEL_P_9          1
    BL_BASRAH_DIESEL_DIESEL_P_9  QUAL_DIESEL_P_9          13125
    BL_BASRAH_DIESEL_FUELOIL_9  STRM_BASRAH_DIESEL_9     -1  PBAL_FUELOIL_9           1
    BL_BASRAH_DIESEL_FUELOIL_9  QUAL_FUELOIL_9           -21525
    TSLACK_BASRAH_DIESEL_9    COST                     -180  TSTRM_BASRAH_DIESEL_9    -1
    TBL_BASRAH_DIESEL_DIESEL_P_9  TSTRM_BASRAH_DIESEL_9    -1  PBAL_DIESEL_P_9          1
    TBL_BASRAH_DIESEL_DIESEL_P_9  QUAL_DIESEL_P_9          189
    TBL_BASRAH_DIESEL_FUELOIL_9  TSTRM_BASRAH_DIESEL_9    -1  PBAL_FUELOIL_9           1
    TBL_BASRAH_DIESEL_FUELOIL_9  QUAL_FUELOIL_9           -34461
    SLACK_BASRAH_VGO_9        COST                     -180  STRM_BASRAH_VGO_9        -1
    HDT_BASRAH_VGO_9          COST                     -240  STRM_BASRAH_VGO_9        -1
    HDT_BASRAH_VGO_9          TSTRM_BASRAH_VGO_9       1  HDTCAP_9                 1
    FCC_BASRAH_9              COST                     -310  STRM_BASRAH_VGO_9        -1
    FCC_BASRAH_9              FSTRM_BASRAH_NAPHTHA_9   0.55  FSTRM_BASRAH_DIESEL_9    0.25
    FCC_BASRAH_9              FCCCAP_9                 1
    BL_BASRAH_VGO_DIESEL_P_9  STRM_BASRAH_VGO_9        -1  PBAL_DIESEL_P_9          1
    BL_BASRAH_VGO_DIESEL_P_9  QUAL_DIESEL_P_9          32725
    BL_BASRAH_VGO_FUELOIL_9   STRM_BASRAH_VGO_9        -1  PBAL_FUELOIL_9           1
    BL_BASRAH_VGO_FUELOIL_9   QUAL_FUELOIL_9           -1925
    TSLACK_BASRAH_VGO_9       COST                     -180  TSTRM_BASRAH_VGO_9       -1
    TBL_BASRAH_VGO_DIESEL_P_9  TSTRM_BASRAH_VGO_9       -1  PBAL_DIESEL_P_9          1
    TBL_BASRAH_VGO_DIESEL_P_9  QUAL_DIESEL_P_9          973
    TBL_BASRAH_VGO_FUELOIL_9  TSTRM_BASRAH_VGO_9       -1  PBAL_FUELOIL_9           1
    TBL_BASRAH_VGO_FUELOIL_9  QUAL_FUELOIL_9           -33677
    SLACK_BASRAH_RESIDUE_9    COST                     -180  STRM_BASRAH_RESIDUE_9    -1
    HDT_BASRAH_RESIDUE_9      COST                     -240  STRM_BASRAH_RESIDUE_9    -1
    HDT_BASRAH_RESIDUE_9      TSTRM_BASRAH_RESIDUE_9   1  HDTCAP_9                 1
    BL_BASRAH_RESIDUE_FUELOIL_9  STRM_BASRAH_RESIDUE_9    -1  PBAL_FUELOIL_9           1
    BL_BASRAH_RESIDUE_FUELOIL_9  QUAL_FUELOIL_9           28700
    TSLACK_BASRAH_RESIDUE_9   COST                     -180  TSTRM_BASRAH_RESIDUE_9   -1
    TBL_BASRAH_RESIDUE_FUELOIL_9  TSTRM_BASRAH_RESIDUE_9   -1  PBAL_FUELOIL_9           1
    TBL_BASRAH_RESIDUE_FUELOIL_9  QUAL_FUELOIL_9           -32452
    FSLACK_BASRAH_NAPHTHA_9   COST                     -180  FSTRM_BASRAH_NAPHTHA_9   -1
    FBL_BASRAH_NAPHTHA_GASOLINE_9  FSTRM_BASRAH_NAPHTHA_9   -1  PBAL_GASOLINE_9          1
    FBL_BASRAH_NAPHTHA_GASOLINE_9  QUAL_GASOLINE_9          121.5
    FBL_BASRAH_NAPHTHA_JET_9  FSTRM_BASRAH_NAPHTHA_9   -1  PBAL_JET_9               1
    FBL_BASRAH_NAPHTHA_JET_9  QUAL_JET_9               -2328.5
    FSLACK_BASRAH_DIESEL_9    COST                     -180  FSTRM_BASRAH_DIESEL_9    -1
    FBL_BASRAH_DIESEL_DIESEL_P_9  FSTRM_BASRAH_DIESEL_9    -1  PBAL_DIESEL_P_9          1
    FBL_BASRAH_DIESEL_DIESEL_P_9  QUAL_DIESEL_P_9          4366.25
    FBL_BASRAH_DIESEL_FUELOIL_9  FSTRM_BASRAH_DIESEL_9    -1  PBAL_FUELOIL_9           1
    FBL_BASRAH_DIESEL_FUELOIL_9  QUAL_FUELOIL_9           -30283.75
    BUY_URALS_9               COST                     -6260  CBAL_URALS_9             1
    INVC_URALS_9              COST                     -75.12  CBAL_URALS_9             -1
    INVC_URALS_9              CBAL_URALS_10            1
    CHG_URALS_9               COST                     -145  CBAL_URALS_9             -1
    CHG_URALS_9               CDUCAP_9                 1  STRM_URALS_NAPHTHA_9     0.2
    CHG_URALS_9               STRM_URALS_KERO_9        0.16  STRM_URALS_DIESEL_9      0.24
    CHG_URALS_9               STRM_URALS_VGO_9         0.23  STRM_URALS_RESIDUE_9     0.17
    SLACK_URALS_NAPHTHA_9     COST                     -180  STRM_URALS_NAPHTHA_9     -1
    HDT_URALS_NAPHTHA_9       COST                     -240  STRM_URALS_NAPHTHA_9     -1
    HDT_URALS_NAPHTHA_9       TSTRM_URALS_NAPHTHA_9    1  HDTCAP_9                 1
    BL_URALS_NAPHTHA_GASOLINE_9  STRM_URALS_NAPHTHA_9     -1  PBAL_GASOLINE_9          1
    BL_URALS_NAPHTHA_GASOLINE_9  QUAL_GASOLINE_9          226
    BL_URALS_NAPHTHA_JET_9    STRM_URALS_NAPHTHA_9     -1  PBAL_JET_9               1
    BL_URALS_NAPHTHA_JET_9    QUAL_JET_9               -2224
    TSLACK_URALS_NAPHTHA_9    COST                     -180  TSTRM_URALS_NAPHTHA_9    -1
    TBL_URALS_NAPHTHA_GASOLINE_9  TSTRM_URALS_NAPHTHA_9    -1  PBAL_GASOLINE_9          1
    TBL_URALS_NAPHTHA_GASOLINE_9  QUAL_GASOLINE_9          -38.96
    TBL_URALS_NAPHTHA_JET_9   TSTRM_URALS_NAPHTHA_9    -1  PBAL_JET_9               1
    TBL_URALS_NAPHTHA_JET_9   QUAL_JET_9               -2488.96
    SLACK_URALS_KERO_9        COST                     -180  STRM_URALS_KERO_9        -1
    HDT_URALS_KERO_9          COST                     -240  STRM_URALS_KERO_9        -1
    HDT_URALS_KERO_9          TSTRM_URALS_KERO_9       1  HDTCAP_9                 1
    BL_URALS_KERO_GASOLINE_9  STRM_URALS_KERO_9        -1  PBAL_GASOLINE_9          1
    BL_URALS_KERO_GASOLINE_9  QUAL_GASOLINE_9          2020
    BL_URALS_KERO_JET_9       STRM_URALS_KERO_9        -1  PBAL_JET_9               1
    BL_URALS_KERO_JET_9       QUAL_JET_9               -430
    BL_URALS_KERO_DIESEL_P_9  STRM_URALS_KERO_9        -1  PBAL_DIESEL_P_9          1
    BL_URALS_KERO_DIESEL_P_9  QUAL_DIESEL_P_9          1720
    TSLACK_URALS_KERO_9       COST                     -180  TSTRM_URALS_KERO_9       -1
    TBL_URALS_KERO_GASOLINE_9  TSTRM_URALS_KERO_9       -1  PBAL_GASOLINE_9          1
    TBL_URALS_KERO_GASOLINE_9  QUAL_GASOLINE_9          32.8
    TBL_URALS_KERO_JET_9      TSTRM_URALS_KERO_9       -1  PBAL_JET_9               1
    TBL_URALS_KERO_JET_9      QUAL_JET_9               -2417.2
    TBL_URALS_KERO_DIESEL_P_9  TSTRM_URALS_KERO_9       -1  PBAL_DIESEL_P_9          1
    TBL_URALS_KERO_DIESEL_P_9  QUAL_DIESEL_P_9          -267.2
    SLACK_URALS_DIESEL_9      COST                     -180  STRM_URALS_DIESEL_9      -1
    HDT_URALS_DIESEL_9        COST                     -240  STRM_URALS_DIESEL_9      -1
    HDT_URALS_DIESEL_9        TSTRM_URALS_DIESEL_9     1  HDTCAP_9                 1
    BL_URALS_DIESEL_DIESEL_P_9  STRM_URALS_DIESEL_9      -1  PBAL_DIESEL_P_9          1
    BL_URALS_DIESEL_DIESEL_P_9  QUAL_DIESEL_P_9          7240
    BL_URALS_DIESEL_FUELOIL_9  STRM_URALS_DIESEL_9      -1  PBAL_FUELOIL_9           1
    BL_URALS_DIESEL_FUELOIL_9  QUAL_FUELOIL_9           -27410
    TSLACK_URALS_DIESEL_9     COST                     -180  TSTRM_URALS_DIESEL_9     -1
    TBL_URALS_DIESEL_DIESEL_P_9  TSTRM_URALS_DIESEL_9     -1  PBAL_DIESEL_P_9          1
    TBL_URALS_DIESEL_DIESEL_P_9  QUAL_DIESEL_P_9          -46.4
    TBL_URALS_DIESEL_FUELOIL_9  TSTRM_URALS_DIESEL_9     -1  PBAL_FUELOIL_9           1
    TBL_URALS_DIESEL_FUELOIL_9  QUAL_FUELOIL_9           -34696.4
    SLACK_URALS_VGO_9         COST                     -180  STRM_URALS_VGO_9         -1
    HDT_URALS_VGO_9           COST                     -240  STRM_URALS_VGO_9         -1
    HDT_URALS_VGO_9           TSTRM_URALS_VGO_9        1  HDTCAP_9                 1
    FCC_URALS_9               COST                     -310  STRM_URALS_VGO_9         -1
    FCC_URALS_9               FSTRM_URALS_NAPHTHA_9    0.55  FSTRM_URALS_DIESEL_9     0.25
    FCC_URALS_9               FCCCAP_9                 1
    BL_URALS_VGO_DIESEL_P_9   STRM_URALS_VGO_9         -1  PBAL_DIESEL_P_9          1
    BL_URALS_VGO_DIESEL_P_9   QUAL_DIESEL_P_9          18280
    BL_URALS_VGO_FUELOIL_9    STRM_URALS_VGO_9         -1  PBAL_FUELOIL_9           1
    BL_URALS_VGO_FUELOIL_9    QUAL_FUELOIL_9           -16370
    TSLACK_URALS_VGO_9        COST                     -180  TSTRM_URALS_VGO_9        -1
    TBL_URALS_VGO_DIESEL_P_9  TSTRM_URALS_VGO_9        -1  PBAL_DIESEL_P_9          1
    TBL_URALS_VGO_DIESEL_P_9  QUAL_DIESEL_P_9          395.2
    TBL_URALS_VGO_FUELOIL_9   TSTRM_URALS_VGO_9        -1  PBAL_FUELOIL_9           1
    TBL_URALS_VGO_FUELOIL_9   QUAL_FUELOIL_9           -34254.8
    SLACK_URALS_RESIDUE_9     COST                     -180  STRM_URALS_RESIDUE_9     -1
    HDT_URALS_RESIDUE_9       COST                     -240  STRM_URALS_RESIDUE_9     -1
    HDT_URALS_RESIDUE_9       TSTRM_URALS_RESIDUE_9    1  HDTCAP_9                 1
    BL_URALS_RESIDUE_FUELOIL_9  STRM_URALS_RESIDUE_9     -1  PBAL_FUELOIL_9           1
    BL_URALS_RESIDUE_FUELOIL_9  QUAL_FUELOIL_9           880
    TSLACK_URALS_RESIDUE_9    COST                     -180  TSTRM_URALS_RESIDUE_9    -1
    TBL_URALS_RESIDUE_FUELOIL_9  TSTRM_URALS_RESIDUE_9    -1  PBAL_FUELOIL_9           1
    TBL_URALS_RESIDUE_FUELOIL_9  QUAL_FUELOIL_9           -33564.8
    FSLACK_URALS_NAPHTHA_9    COST                     -180  FSTRM_URALS_NAPHTHA_9    -1
    FBL_URALS_NAPHTHA_GASOLINE_9  FSTRM_URALS_NAPHTHA_9    -1  PBAL_GASOLINE_9          1
    FBL_URALS_NAPHTHA_GASOLINE_9  QUAL_GASOLINE_9          46.6
    FBL_URALS_NAPHTHA_JET_9   FSTRM_URALS_NAPHTHA_9    -1  PBAL_JET_9               1
    FBL_URALS_NAPHTHA_JET_9   QUAL_JET_9               -2403.4
    FSLACK_URALS_DIESEL_9     COST                     -180  FSTRM_URALS_DIESEL_9     -1
    FBL_URALS_DIESEL_DIESEL_P_9  FSTRM_URALS_DIESEL_9     -1  PBAL_DIESEL_P_9          1
    FBL_URALS_DIESEL_DIESEL_P_9  QUAL_DIESEL_P_9          2306.5
    FBL_URALS_DIESEL_FUELOIL_9  FSTRM_URALS_DIESEL_9     -1  PBAL_FUELOIL_9           1
    FBL_URALS_DIESEL_FUELOIL_9  QUAL_FUELOIL_9           -32343.5
    BUY_MURBAN_9              COST                     -6980  CBAL_MURBAN_9            1
    INVC_MURBAN_9             COST                     -83.76  CBAL_MURBAN_9            -1
    INVC_MURBAN_9             CBAL_MURBAN_10           1
    CHG_MURBAN_9              COST                     -145  CBAL_MURBAN_9            -1
    CHG_MURBAN_9              CDUCAP_9                 1  STRM_MURBAN_NAPHTHA_9    0.28
    CHG_MURBAN_9              STRM_MURBAN_KERO_9       0.19  STRM_MURBAN_DIESEL_9     0.23
    CHG_MURBAN_9              STRM_MURBAN_VGO_9        0.19  STRM_MURBAN_RESIDUE_9    0.11
    SLACK_MURBAN_NAPHTHA_9    COST                     -180  STRM_MURBAN_NAPHTHA_9    -1
    HDT_MURBAN_NAPHTHA_9      COST                     -240  STRM_MURBAN_NAPHTHA_9    -1
    HDT_MURBAN_NAPHTHA_9      TSTRM_MURBAN_NAPHTHA_9   1  HDTCAP_9                 1
    BL_MURBAN_NAPHTHA_GASOLINE_9  STRM_MURBAN_NAPHTHA_9    -1  PBAL_GASOLINE_9          1
    BL_MURBAN_NAPHTHA_GASOLINE_9  QUAL_GASOLINE_9          98
    BL_MURBAN_NAPHTHA_JET_9   STRM_MURBAN_NAPHTHA_9    -1  PBAL_JET_9               1
    BL_MURBAN_NAPHTHA_JET_9   QUAL_JET_9               -2352
    TSLACK_MURBAN_NAPHTHA_9   COST                     -180  TSTRM_MURBAN_NAPHTHA_9   -1
    TBL_MURBAN_NAPHTHA_GASOLINE_9  TSTRM_MURBAN_NAPHTHA_9   -1  PBAL_GASOLINE_9          1
    TBL_MURBAN_NAPHTHA_GASOLINE_9  QUAL_GASOLINE_9          -44.08
    TBL_MURBAN_NAPHTHA_JET_9  TSTRM_MURBAN_NAPHTHA_9   -1  PBAL_JET_9               1
    TBL_MURBAN_NAPHTHA_JET_9  QUAL_JET_9               -2494.08
    SLACK_MURBAN_KERO_9       COST                     -180  STRM_MURBAN_KERO_9       -1
    HDT_MURBAN_KERO_9         COST                     -240  STRM_MURBAN_KERO_9       -1
    HDT_MURBAN_KERO_9         TSTRM_MURBAN_KERO_9      1  HDTCAP_9                 1
    BL_MURBAN_KERO_GASOLINE_9  STRM_MURBAN_KERO_9       -1  PBAL_GASOLINE_9          1
    BL_MURBAN_KERO_GASOLINE_9  QUAL_GASOLINE_9          1060
    BL_MURBAN_KERO_JET_9      STRM_MURBAN_KERO_9       -1  PBAL_JET_9               1
    BL_MURBAN_KERO_JET_9      QUAL_JET_9               -1390
    BL_MURBAN_KERO_DIESEL_P_9  STRM_MURBAN_KERO_9       -1  PBAL_DIESEL_P_9          1
    BL_MURBAN_KERO_DIESEL_P_9  QUAL_DIESEL_P_9          760
    TSLACK_MURBAN_KERO_9      COST                     -180  TSTRM_MURBAN_KERO_9      -1
    TBL_MURBAN_KERO_GASOLINE_9  TSTRM_MURBAN_KERO_9      -1  PBAL_GASOLINE_9          1
    TBL_MURBAN_KERO_GASOLINE_9  QUAL_GASOLINE_9          -5.6
    TBL_MURBAN_KERO_JET_9     TSTRM_MURBAN_KERO_9      -1  PBAL_JET_9               1
    TBL_MURBAN_KERO_JET_9     QUAL_JET_9               -2455.6
    TBL_MURBAN_KERO_DIESEL_P_9  TSTRM_MURBAN_KERO_9      -1  PBAL_DIESEL_P_9          1
    TBL_MURBAN_KERO_DIESEL_P_9  QUAL_DIESEL_P_9          -305.6
    SLACK_MURBAN_DIESEL_9     COST                     -180  STRM_MURBAN_DIESEL_9     -1
    HDT_MURBAN_DIESEL_9       COST                     -240  STRM_MURBAN_DIESEL_9     -1
    HDT_MURBAN_DIESEL_9       TSTRM_MURBAN_DIESEL_9    1  HDTCAP_9                 1
    BL_MURBAN_DIESEL_DIESEL_P_9  STRM_MURBAN_DIESEL_9     -1  PBAL_DIESEL_P_9          1
    BL_MURBAN_DIESEL_DIESEL_P_9  QUAL_DIESEL_P_9          3720
    BL_MURBAN_DIESEL_FUELOIL_9  STRM_MURBAN_DIESEL_9     -1  PBAL_FUELOIL_9           1
    BL_MURBAN_DIESEL_FUELOIL_9  QUAL_FUELOIL_9           -30930
    TSLACK_MURBAN_DIESEL_9    COST                     -180  TSTRM_MURBAN_DIESEL_9    -1
    TBL_MURBAN_DIESEL_DIESEL_P_9  TSTRM_MURBAN_DIESEL_9    -1  PBAL_DIESEL_P_9          1
    TBL_MURBAN_DIESEL_DIESEL_P_9  QUAL_DIESEL_P_9          -187.2
    TBL_MURBAN_DIESEL_FUELOIL_9  TSTRM_MURBAN_DIESEL_9    -1  PBAL_FUELOIL_9           1
    TBL_MURBAN_DIESEL_FUELOIL_9  QUAL_FUELOIL_9           -34837.2
    SLACK_MURBAN_VGO_9        COST                     -180  STRM_MURBAN_VGO_9        -1
    HDT_MURBAN_VGO_9          COST                     -240  STRM_MURBAN_VGO_9        -1
    HDT_MURBAN_VGO_9          TSTRM_MURBAN_VGO_9       1  HDTCAP_9                 1
    FCC_MURBAN_9              COST                     -310  STRM_MURBAN_VGO_9        -1
    FCC_MURBAN_9              FSTRM_MURBAN_NAPHTHA_9   0.55  FSTRM_MURBAN_DIESEL_9    0.25
    FCC_MURBAN_9              FCCCAP_9                 1
    BL_MURBAN_VGO_DIESEL_P_9  STRM_MURBAN_VGO_9        -1  PBAL_DIESEL_P_9          1
    BL_MURBAN_VGO_DIESEL_P_9  QUAL_DIESEL_P_9          9640
    BL_MURBAN_VGO_FUELOIL_9   STRM_MURBAN_VGO_9        -1  PBAL_FUELOIL_9           1
    BL_MURBAN_VGO_FUELOIL_9   QUAL_FUELOIL_9           -25010
    TSLACK_MURBAN_VGO_9       COST                     -180  TSTRM_MURBAN_VGO_9       -1
    TBL_MURBAN_VGO_DIESEL_P_9  TSTRM_MURBAN_VGO_9       -1  PBAL_DIESEL_P_9          1
    TBL_MURBAN_VGO_DIESEL_P_9  QUAL_DIESEL_P_9          49.6
    TBL_MURBAN_VGO_FUELOIL_9  TSTRM_MURBAN_VGO_9       -1  PBAL_FUELOIL_9           1
    TBL_MURBAN_VGO_FUELOIL_9  QUAL_FUELOIL_9           -34600.4
    SLACK_MURBAN_RESIDUE_9    COST                     -180  STRM_MURBAN_RESIDUE_9    -1
    HDT_MURBAN_RESIDUE_9      COST                     -240  STRM_MURBAN_RESIDUE_9    -1
    HDT_MURBAN_RESIDUE_9      TSTRM_MURBAN_RESIDUE_9   1  HDTCAP_9                 1
    BL_MURBAN_RESIDUE_FUELOIL_9  STRM_MURBAN_RESIDUE_9    -1  PBAL_FUELOIL_9           1
    BL_MURBAN_RESIDUE_FUELOIL_9  QUAL_FUELOIL_9           -15760
    TSLACK_MURBAN_RESIDUE_9   COST                     -180  TSTRM_MURBAN_RESIDUE_9   -1
    TBL_MURBAN_RESIDUE_FUELOIL_9  TSTRM_MURBAN_RESIDUE_9   -1  PBAL_FUELOIL_9           1
    TBL_MURBAN_RESIDUE_FUELOIL_9  QUAL_FUELOIL_9           -34230.4
    FSLACK_MURBAN_NAPHTHA_9   COST                     -180  FSTRM_MURBAN_NAPHTHA_9   -1
    FBL_MURBAN_NAPHTHA_GASOLINE_9  FSTRM_MURBAN_NAPHTHA_9   -1  PBAL_GASOLINE_9          1
    FBL_MURBAN_NAPHTHA_GASOLINE_9  QUAL_GASOLINE_9          1.8
    FBL_MURBAN_NAPHTHA_JET_9  FSTRM_MURBAN_NAPHTHA_9   -1  PBAL_JET_9               1
    FBL_MURBAN_NAPHTHA_JET_9  QUAL_JET_9               -2448.2
    FSLACK_MURBAN_DIESEL_9    COST                     -180  FSTRM_MURBAN_DIESEL_9    -1
    FBL_MURBAN_DIESEL_DIESEL_P_9  FSTRM_MURBAN_DIESEL_9    -1  PBAL_DIESEL_P_9          1
    FBL_MURBAN_DIESEL_DIESEL_P_9  QUAL_DIESEL_P_9          1074.5
    FBL_MURBAN_DIESEL_FUELOIL_9  FSTRM_MURBAN_DIESEL_9    -1  PBAL_FUELOIL_9           1
    FBL_MURBAN_DIESEL_FUELOIL_9  QUAL_FUELOIL_9           -33575.5
    BUY_ES_SIDER_9            COST                     -6540  CBAL_ES_SIDER_9          1
    INVC_ES_SIDER_9           COST                     -78.48  CBAL_ES_SIDER_9          -1
    INVC_ES_SIDER_9           CBAL_ES_SIDER_10         1
    CHG_ES_SIDER_9            COST                     -145  CBAL_ES_SIDER_9          -1
    CHG_ES_SIDER_9            CDUCAP_9                 1  STRM_ES_SIDER_NAPHTHA_9  0.25
    CHG_ES_SIDER_9            STRM_ES_SIDER_KERO_9     0.18  STRM_ES_SIDER_DIESEL_9   0.25
    CHG_ES_SIDER_9            STRM_ES_SIDER_VGO_9      0.2  STRM_ES_SIDER_RESIDUE_9  0.12
    SLACK_ES_SIDER_NAPHTHA_9  COST                     -180  STRM_ES_SIDER_NAPHTHA_9  -1
    HDT_ES_SIDER_NAPHTHA_9    COST                     -240  STRM_ES_SIDER_NAPHTHA_9  -1
    HDT_ES_SIDER_NAPHTHA_9    TSTRM_ES_SIDER_NAPHTHA_9 1  HDTCAP_9                 1
    BL_ES_SIDER_NAPHTHA_GASOLINE_9  STRM_ES_SIDER_NAPHTHA_9  -1  PBAL_GASOLINE_9          1
    BL_ES_SIDER_NAPHTHA_GASOLINE_9  QUAL_GASOLINE_9          32
    BL_ES_SIDER_NAPHTHA_JET_9  STRM_ES_SIDER_NAPHTHA_9  -1  PBAL_JET_9               1
    BL_ES_SIDER_NAPHTHA_JET_9  QUAL_JET_9               -2418
    TSLACK_ES_SIDER_NAPHTHA_9  COST                     -180  TSTRM_ES_SIDER_NAPHTHA_9 -1
    TBL_ES_SIDER_NAPHTHA_GASOLINE_9  TSTRM_ES_SIDER_NAPHTHA_9 -1  PBAL_GASOLINE_9          1
    TBL_ES_SIDER_NAPHTHA_GASOLINE_9  QUAL_GASOLINE_9          -46.72
    TBL_ES_SIDER_NAPHTHA_JET_9  TSTRM_ES_SIDER_NAPHTHA_9 -1  PBAL_JET_9               1
    TBL_ES_SIDER_NAPHTHA_JET_9  QUAL_JET_9               -2496.72
    SLACK_ES_SIDER_KERO_9     COST                     -180  STRM_ES_SIDER_KERO_9     -1
    HDT_ES_SIDER_KERO_9       COST                     -240  STRM_ES_SIDER_KERO_9     -1
    HDT_ES_SIDER_KERO_9       TSTRM_ES_SIDER_KERO_9    1  HDTCAP_9                 1
    BL_ES_SIDER_KERO_GASOLINE_9  STRM_ES_SIDER_KERO_9     -1  PBAL_GASOLINE_9          1
    BL_ES_SIDER_KERO_GASOLINE_9  QUAL_GASOLINE_9          565
    BL_ES_SIDER_KERO_JET_9    STRM_ES_SIDER_KERO_9     -1  PBAL_JET_9               1
    BL_ES_SIDER_KERO_JET_9    QUAL_JET_9               -1885
    BL_ES_SIDER_KERO_DIESEL_P_9  STRM_ES_SIDER_KERO_9     -1  PBAL_DIESEL_P_9          1
    BL_ES_SIDER_KERO_DIESEL_P_9  QUAL_DIESEL_P_9          265
    TSLACK_ES_SIDER_KERO_9    COST                     -180  TSTRM_ES_SIDER_KERO_9    -1
    TBL_ES_SIDER_KERO_GASOLINE_9  TSTRM_ES_SIDER_KERO_9    -1  PBAL_GASOLINE_9          1
    TBL_ES_SIDER_KERO_GASOLINE_9  QUAL_GASOLINE_9          -25.4
    TBL_ES_SIDER_KERO_JET_9   TSTRM_ES_SIDER_KERO_9    -1  PBAL_JET_9               1
    TBL_ES_SIDER_KERO_JET_9   QUAL_JET_9               -2475.4
    TBL_ES_SIDER_KERO_DIESEL_P_9  TSTRM_ES_SIDER_KERO_9    -1  PBAL_DIESEL_P_9          1
    TBL_ES_SIDER_KERO_DIESEL_P_9  QUAL_DIESEL_P_9          -325.4
    SLACK_ES_SIDER_DIESEL_9   COST                     -180  STRM_ES_SIDER_DIESEL_9   -1
    HDT_ES_SIDER_DIESEL_9     COST                     -240  STRM_ES_SIDER_DIESEL_9   -1
    HDT_ES_SIDER_DIESEL_9     TSTRM_ES_SIDER_DIESEL_9  1  HDTCAP_9                 1
    BL_ES_SIDER_DIESEL_DIESEL_P_9  STRM_ES_SIDER_DIESEL_9   -1  PBAL_DIESEL_P_9          1
    BL_ES_SIDER_DIESEL_DIESEL_P_9  QUAL_DIESEL_P_9          1905
    BL_ES_SIDER_DIESEL_FUELOIL_9  STRM_ES_SIDER_DIESEL_9   -1  PBAL_FUELOIL_9           1
    BL_ES_SIDER_DIESEL_FUELOIL_9  QUAL_FUELOIL_9           -32745
    TSLACK_ES_SIDER_DIESEL_9  COST                     -180  TSTRM_ES_SIDER_DIESEL_9  -1
    TBL_ES_SIDER_DIESEL_DIESEL_P_9  TSTRM_ES_SIDER_DIESEL_9  -1  PBAL_DIESEL_P_9          1
    TBL_ES_SIDER_DIESEL_DIESEL_P_9  QUAL_DIESEL_P_9          -259.8
    TBL_ES_SIDER_DIESEL_FUELOIL_9  TSTRM_ES_SIDER_DIESEL_9  -1  PBAL_FUELOIL_9           1
    TBL_ES_SIDER_DIESEL_FUELOIL_9  QUAL_FUELOIL_9           -34909.8
    SLACK_ES_SIDER_VGO_9      COST                     -180  STRM_ES_SIDER_VGO_9      -1
    HDT_ES_SIDER_VGO_9        COST                     -240  STRM_ES_SIDER_VGO_9      -1
    HDT_ES_SIDER_VGO_9        TSTRM_ES_SIDER_VGO_9     1  HDTCAP_9                 1
    FCC_ES_SIDER_9            COST                     -310  STRM_ES_SIDER_VGO_9      -1
    FCC_ES_SIDER_9            FSTRM_ES_SIDER_NAPHTHA_9 0.55  FSTRM_ES_SIDER_DIESEL_9  0.25
    FCC_ES_SIDER_9            FCCCAP_9                 1
    BL_ES_SIDER_VGO_DIESEL_P_9  STRM_ES_SIDER_VGO_9      -1  PBAL_DIESEL_P_9          1
    BL_ES_SIDER_VGO_DIESEL_P_9  QUAL_DIESEL_P_9          5185
    BL_ES_SIDER_VGO_FUELOIL_9  STRM_ES_SIDER_VGO_9      -1  PBAL_FUELOIL_9           1
    BL_ES_SIDER_VGO_FUELOIL_9  QUAL_FUELOIL_9           -29465
    TSLACK_ES_SIDER_VGO_9     COST                     -180  TSTRM_ES_SIDER_VGO_9     -1
    TBL_ES_SIDER_VGO_DIESEL_P_9  TSTRM_ES_SIDER_VGO_9     -1  PBAL_DIESEL_P_9          1
    TBL_ES_SIDER_VGO_DIESEL_P_9  QUAL_DIESEL_P_9          -128.6
    TBL_ES_SIDER_VGO_FUELOIL_9  TSTRM_ES_SIDER_VGO_9     -1  PBAL_FUELOIL_9           1
    TBL_ES_SIDER_VGO_FUELOIL_9  QUAL_FUELOIL_9           -34778.6
    SLACK_ES_SIDER_RESIDUE_9  COST                     -180  STRM_ES_SIDER_RESIDUE_9  -1
    HDT_ES_SIDER_RESIDUE_9    COST                     -240  STRM_ES_SIDER_RESIDUE_9  -1
    HDT_ES_SIDER_RESIDUE_9    TSTRM_ES_SIDER_RESIDUE_9 1  HDTCAP_9                 1
    BL_ES_SIDER_RESIDUE_FUELOIL_9  STRM_ES_SIDER_RESIDUE_9  -1  PBAL_FUELOIL_9           1
    BL_ES_SIDER_RESIDUE_FUELOIL_9  QUAL_FUELOIL_9           -24340
    TSLACK_ES_SIDER_RESIDUE_9  COST                     -180  TSTRM_ES_SIDER_RESIDUE_9 -1
    TBL_ES_SIDER_RESIDUE_FUELOIL_9  TSTRM_ES_SIDER_RESIDUE_9 -1  PBAL_FUELOIL_9           1
    TBL_ES_SIDER_RESIDUE_FUELOIL_9  QUAL_FUELOIL_9           -34573.6
    FSLACK_ES_SIDER_NAPHTHA_9  COST                     -180  FSTRM_ES_SIDER_NAPHTHA_9 -1
    FBL_ES_SIDER_NAPHTHA_GASOLINE_9  FSTRM_ES_SIDER_NAPHTHA_9 -1  PBAL_GASOLINE_9          1
    FBL_ES_SIDER_NAPHTHA_GASOLINE_9  QUAL_GASOLINE_9          -21.3
    FBL_ES_SIDER_NAPHTHA_JET_9  FSTRM_ES_SIDER_NAPHTHA_9 -1  PBAL_JET_9               1
    FBL_ES_SIDER_NAPHTHA_JET_9  QUAL_JET_9               -2471.3
    FSLACK_ES_SIDER_DIESEL_9  COST                     -180  FSTRM_ES_SIDER_DIESEL_9  -1
    FBL_ES_SIDER_DIESEL_DIESEL_P_9  FSTRM_ES_SIDER_DIESEL_9  -1  PBAL_DIESEL_P_9          1
    FBL_ES_SIDER_DIESEL_DIESEL_P_9  QUAL_DIESEL_P_9          439.25
    FBL_ES_SIDER_DIESEL_FUELOIL_9  FSTRM_ES_SIDER_DIESEL_9  -1  PBAL_FUELOIL_9           1
    FBL_ES_SIDER_DIESEL_FUELOIL_9  QUAL_FUELOIL_9           -34210.75
    BUY_QUA_IBOE_9            COST                     -6890  CBAL_QUA_IBOE_9          1
    INVC_QUA_IBOE_9           COST                     -82.68  CBAL_QUA_IBOE_9          -1
    INVC_QUA_IBOE_9           CBAL_QUA_IBOE_10         1
    CHG_QUA_IBOE_9            COST                     -145  CBAL_QUA_IBOE_9          -1
    CHG_QUA_IBOE_9            CDUCAP_9                 1  STRM_QUA_IBOE_NAPHTHA_9  0.27
    CHG_QUA_IBOE_9            STRM_QUA_IBOE_KERO_9     0.2  STRM_QUA_IBOE_DIESEL_9   0.25
    CHG_QUA_IBOE_9            STRM_QUA_IBOE_VGO_9      0.18  STRM_QUA_IBOE_RESIDUE_9  0.1
    SLACK_QUA_IBOE_NAPHTHA_9  COST                     -180  STRM_QUA_IBOE_NAPHTHA_9  -1
    HDT_QUA_IBOE_NAPHTHA_9    COST                     -240  STRM_QUA_IBOE_NAPHTHA_9  -1
    HDT_QUA_IBOE_NAPHTHA_9    TSTRM_QUA_IBOE_NAPHTHA_9 1  HDTCAP_9                 1
    BL_QUA_IBOE_NAPHTHA_GASOLINE_9  STRM_QUA_IBOE_NAPHTHA_9  -1  PBAL_GASOLINE_9          1
    BL_QUA_IBOE_NAPHTHA_GASOLINE_9  QUAL_GASOLINE_9          -24
    BL_QUA_IBOE_NAPHTHA_JET_9  STRM_QUA_IBOE_NAPHTHA_9  -1  PBAL_JET_9               1
    BL_QUA_IBOE_NAPHTHA_JET_9  QUAL_JET_9               -2474
    TSLACK_QUA_IBOE_NAPHTHA_9  COST                     -180  TSTRM_QUA_IBOE_NAPHTHA_9 -1
    TBL_QUA_IBOE_NAPHTHA_GASOLINE_9  TSTRM_QUA_IBOE_NAPHTHA_9 -1  PBAL_GASOLINE_9          1
    TBL_QUA_IBOE_NAPHTHA_GASOLINE_9  QUAL_GASOLINE_9          -48.96
    TBL_QUA_IBOE_NAPHTHA_JET_9  TSTRM_QUA_IBOE_NAPHTHA_9 -1  PBAL_JET_9               1
    TBL_QUA_IBOE_NAPHTHA_JET_9  QUAL_JET_9               -2498.96
    SLACK_QUA_IBOE_KERO_9     COST                     -180  STRM_QUA_IBOE_KERO_9     -1
    HDT_QUA_IBOE_KERO_9       COST                     -240  STRM_QUA_IBOE_KERO_9     -1
    HDT_QUA_IBOE_KERO_9       TSTRM_QUA_IBOE_KERO_9    1  HDTCAP_9                 1
    BL_QUA_IBOE_KERO_GASOLINE_9  STRM_QUA_IBOE_KERO_9     -1  PBAL_GASOLINE_9          1
    BL_QUA_IBOE_KERO_GASOLINE_9  QUAL_GASOLINE_9          145
    BL_QUA_IBOE_KERO_JET_9    STRM_QUA_IBOE_KERO_9     -1  PBAL_JET_9               1
    BL_QUA_IBOE_KERO_JET_9    QUAL_JET_9               -2305
    BL_QUA_IBOE_KERO_DIESEL_P_9  STRM_QUA_IBOE_KERO_9     -1  PBAL_DIESEL_P_9          1
    BL_QUA_IBOE_KERO_DIESEL_P_9  QUAL_DIESEL_P_9          -155
    TSLACK_QUA_IBOE_KERO_9    COST                     -180  TSTRM_QUA_IBOE_KERO_9    -1
    TBL_QUA_IBOE_KERO_GASOLINE_9  TSTRM_QUA_IBOE_KERO_9    -1  PBAL_GASOLINE_9          1
    TBL_QUA_IBOE_KERO_GASOLINE_9  QUAL_GASOLINE_9          -42.2
    TBL_QUA_IBOE_KERO_JET_9   TSTRM_QUA_IBOE_KERO_9    -1  PBAL_JET_9               1
    TBL_QUA_IBOE_KERO_JET_9   QUAL_JET_9               -2492.2
    TBL_QUA_IBOE_KERO_DIESEL_P_9  TSTRM_QUA_IBOE_KERO_9    -1  PBAL_DIESEL_P_9          1
    TBL_QUA_IBOE_KERO_DIESEL_P_9  QUAL_DIESEL_P_9          -342.2
    SLACK_QUA_IBOE_DIESEL_9   COST                     -180  STRM_QUA_IBOE_DIESEL_9   -1
    HDT_QUA_IBOE_DIESEL_9     COST                     -240  STRM_QUA_IBOE_DIESEL_9   -1
    HDT_QUA_IBOE_DIESEL_9     TSTRM_QUA_IBOE_DIESEL_9  1  HDTCAP_9                 1
    BL_QUA_IBOE_DIESEL_DIESEL_P_9  STRM_QUA_IBOE_DIESEL_9   -1  PBAL_DIESEL_P_9          1
    BL_QUA_IBOE_DIESEL_DIESEL_P_9  QUAL_DIESEL_P_9          365
    BL_QUA_IBOE_DIESEL_FUELOIL_9  STRM_QUA_IBOE_DIESEL_9   -1  PBAL_FUELOIL_9           1
    BL_QUA_IBOE_DIESEL_FUELOIL_9  QUAL_FUELOIL_9           -34285
    TSLACK_QUA_IBOE_DIESEL_9  COST                     -180  TSTRM_QUA_IBOE_DIESEL_9  -1
    TBL_QUA_IBOE_DIESEL_DIESEL_P_9  TSTRM_QUA_IBOE_DIESEL_9  -1  PBAL_DIESEL_P_9          1
    TBL_QUA_IBOE_DIESEL_DIESEL_P_9  QUAL_DIESEL_P_9          -321.4
    TBL_QUA_IBOE_DIESEL_FUELOIL_9  TSTRM_QUA_IBOE_DIESEL_9  -1  PBAL_FUELOIL_9           1
    TBL_QUA_IBOE_DIESEL_FUELOIL_9  QUAL_FUELOIL_9           -34971.4
    SLACK_QUA_IBOE_VGO_9      COST                     -180  STRM_QUA_IBOE_VGO_9      -1
    HDT_QUA_IBOE_VGO_9        COST                     -240  STRM_QUA_IBOE_VGO_9      -1
    HDT_QUA_IBOE_VGO_9        TSTRM_QUA_IBOE_VGO_9     1  HDTCAP_9                 1
    FCC_QUA_IBOE_9            COST                     -310  STRM_QUA_IBOE_VGO_9      -1
    FCC_QUA_IBOE_9            FSTRM_QUA_IBOE_NAPHTHA_9 0.55  FSTRM_QUA_IBOE_DIESEL_9  0.25
    FCC_QUA_IBOE_9            FCCCAP_9                 1
    BL_QUA_IBOE_VGO_DIESEL_P_9  STRM_QUA_IBOE_VGO_9      -1  PBAL_DIESEL_P_9          1
    BL_QUA_IBOE_VGO_DIESEL_P_9  QUAL_DIESEL_P_9          1405
    BL_QUA_IBOE_VGO_FUELOIL_9  STRM_QUA_IBOE_VGO_9      -1  PBAL_FUELOIL_9           1
    BL_QUA_IBOE_VGO_FUELOIL_9  QUAL_FUELOIL_9           -33245
    TSLACK_QUA_IBOE_VGO_9     COST                     -180  TSTRM_QUA_IBOE_VGO_9     -1
    TBL_QUA_IBOE_VGO_DIESEL_P_9  TSTRM_QUA_IBOE_VGO_9     -1  PBAL_DIESEL_P_9          1
    TBL_QUA_IBOE_VGO_DIESEL_P_9  QUAL_DIESEL_P_9          -279.8
    TBL_QUA_IBOE_VGO_FUELOIL_9  TSTRM_QUA_IBOE_VGO_9     -1  PBAL_FUELOIL_9           1
    TBL_QUA_IBOE_VGO_FUELOIL_9  QUAL_FUELOIL_9           -34929.8
    SLACK_QUA_IBOE_RESIDUE_9  COST                     -180  STRM_QUA_IBOE_RESIDUE_9  -1
    HDT_QUA_IBOE_RESIDUE_9    COST                     -240  STRM_QUA_IBOE_RESIDUE_9  -1
    HDT_QUA_IBOE_RESIDUE_9    TSTRM_QUA_IBOE_RESIDUE_9 1  HDTCAP_9                 1
    BL_QUA_IBOE_RESIDUE_FUELOIL_9  STRM_QUA_IBOE_RESIDUE_9  -1  PBAL_FUELOIL_9           1
    BL_QUA_IBOE_RESIDUE_FUELOIL_9  QUAL_FUELOIL_9           -31620
    TSLACK_QUA_IBOE_RESIDUE_9  COST                     -180  TSTRM_QUA_IBOE_RESIDUE_9 -1
    TBL_QUA_IBOE_RESIDUE_FUELOIL_9  TSTRM_QUA_IBOE_RESIDUE_9 -1  PBAL_FUELOIL_9           1
    TBL_QUA_IBOE_RESIDUE_FUELOIL_9  QUAL_FUELOIL_9           -34864.8
    FSLACK_QUA_IBOE_NAPHTHA_9  COST                     -180  FSTRM_QUA_IBOE_NAPHTHA_9 -1
    FBL_QUA_IBOE_NAPHTHA_GASOLINE_9  FSTRM_QUA_IBOE_NAPHTHA_9 -1  PBAL_GASOLINE_9          1
    FBL_QUA_IBOE_NAPHTHA_GASOLINE_9  QUAL_GASOLINE_9          -40.9
    FBL_QUA_IBOE_NAPHTHA_JET_9  FSTRM_QUA_IBOE_NAPHTHA_9 -1  PBAL_JET_9               1
    FBL_QUA_IBOE_NAPHTHA_JET_9  QUAL_JET_9               -2490.9
    FSLACK_QUA_IBOE_DIESEL_9  COST                     -180  FSTRM_QUA_IBOE_DIESEL_9  -1
    FBL_QUA_IBOE_DIESEL_DIESEL_P_9  FSTRM_QUA_IBOE_DIESEL_9  -1  PBAL_DIESEL_P_9          1
    FBL_QUA_IBOE_DIESEL_DIESEL_P_9  QUAL_DIESEL_P_9          -99.75
    FBL_QUA_IBOE_DIESEL_FUELOIL_9  FSTRM_QUA_IBOE_DIESEL_9  -1  PBAL_FUELOIL_9           1
    FBL_QUA_IBOE_DIESEL_FUELOIL_9  QUAL_FUELOIL_9           -34749.75
    SELL_GASOLINE_9           COST                     9250  PBAL_GASOLINE_9          -1
    SELL_JET_9                COST                     8900  PBAL_JET_9               -1
    SELL_DIESEL_P_9           COST                     8600  PBAL_DIESEL_P_9          -1
    SELL_FUELOIL_9            COST                     4900  PBAL_FUELOIL_9           -1
    BUY_BOMBAY_HIGH_10        COST                     -6850  CBAL_BOMBAY_HIGH_10      1
    INVC_BOMBAY_HIGH_10       COST                     -82.2  CBAL_BOMBAY_HIGH_10      -1
    INVC_BOMBAY_HIGH_10       CBAL_BOMBAY_HIGH_11      1
    CHG_BOMBAY_HIGH_10        COST                     -145  CBAL_BOMBAY_HIGH_10      -1
    CHG_BOMBAY_HIGH_10        CDUCAP_10                1  STRM_BOMBAY_HIGH_NAPHTHA_10 0.26
    CHG_BOMBAY_HIGH_10        STRM_BOMBAY_HIGH_KERO_10 0.18  STRM_BOMBAY_HIGH_DIESEL_10 0.24
    CHG_BOMBAY_HIGH_10        STRM_BOMBAY_HIGH_VGO_10  0.2  STRM_BOMBAY_HIGH_RESIDUE_10 0.12
    SLACK_BOMBAY_HIGH_NAPHTHA_10  COST                     -180  STRM_BOMBAY_HIGH_NAPHTHA_10 -1
    HDT_BOMBAY_HIGH_NAPHTHA_10  COST                     -240  STRM_BOMBAY_HIGH_NAPHTHA_10 -1
    HDT_BOMBAY_HIGH_NAPHTHA_10  TSTRM_BOMBAY_HIGH_NAPHTHA_10 1  HDTCAP_10                1
    BL_BOMBAY_HIGH_NAPHTHA_GASOLINE_10  STRM_BOMBAY_HIGH_NAPHTHA_10 -1  PBAL_GASOLINE_10         1
    BL_BOMBAY_HIGH_NAPHTHA_GASOLINE_10  QUAL_GASOLINE_10         -32
    BL_BOMBAY_HIGH_NAPHTHA_JET_10  STRM_BOMBAY_HIGH_NAPHTHA_10 -1  PBAL_JET_10              1
    BL_BOMBAY_HIGH_NAPHTHA_JET_10  QUAL_JET_10              -2482
    TSLACK_BOMBAY_HIGH_NAPHTHA_10  COST                     -180  TSTRM_BOMBAY_HIGH_NAPHTHA_10 -1
    TBL_BOMBAY_HIGH_NAPHTHA_GASOLINE_10  TSTRM_BOMBAY_HIGH_NAPHTHA_10 -1  PBAL_GASOLINE_10         1
    TBL_BOMBAY_HIGH_NAPHTHA_GASOLINE_10  QUAL_GASOLINE_10         -49.28
    TBL_BOMBAY_HIGH_NAPHTHA_JET_10  TSTRM_BOMBAY_HIGH_NAPHTHA_10 -1  PBAL_JET_10              1
    TBL_BOMBAY_HIGH_NAPHTHA_JET_10  QUAL_JET_10              -2499.28
    SLACK_BOMBAY_HIGH_KERO_10  COST                     -180  STRM_BOMBAY_HIGH_KERO_10 -1
    HDT_BOMBAY_HIGH_KERO_10   COST                     -240  STRM_BOMBAY_HIGH_KERO_10 -1
    HDT_BOMBAY_HIGH_KERO_10   TSTRM_BOMBAY_HIGH_KERO_10 1  HDTCAP_10                1
    BL_BOMBAY_HIGH_KERO_GASOLINE_10  STRM_BOMBAY_HIGH_KERO_10 -1  PBAL_GASOLINE_10         1
    BL_BOMBAY_HIGH_KERO_GASOLINE_10  QUAL_GASOLINE_10         85
    BL_BOMBAY_HIGH_KERO_JET_10  STRM_BOMBAY_HIGH_KERO_10 -1  PBAL_JET_10              1
    BL_BOMBAY_HIGH_KERO_JET_10  QUAL_JET_10              -2365
    BL_BOMBAY_HIGH_KERO_DIESEL_P_10  STRM_BOMBAY_HIGH_KERO_10 -1  PBAL_DIESEL_P_10         1
    BL_BOMBAY_HIGH_KERO_DIESEL_P_10  QUAL_DIESEL_P_10         -215
    TSLACK_BOMBAY_HIGH_KERO_10  COST                     -180  TSTRM_BOMBAY_HIGH_KERO_10 -1
    TBL_BOMBAY_HIGH_KERO_GASOLINE_10  TSTRM_BOMBAY_HIGH_KERO_10 -1  PBAL_GASOLINE_10         1
    TBL_BOMBAY_HIGH_KERO_GASOLINE_10  QUAL_GASOLINE_10         -44.6
    TBL_BOMBAY_HIGH_KERO_JET_10  TSTRM_BOMBAY_HIGH_KERO_10 -1  PBAL_JET_10              1
    TBL_BOMBAY_HIGH_KERO_JET_10  QUAL_JET_10              -2494.6
    TBL_BOMBAY_HIGH_KERO_DIESEL_P_10  TSTRM_BOMBAY_HIGH_KERO_10 -1  PBAL_DIESEL_P_10         1
    TBL_BOMBAY_HIGH_KERO_DIESEL_P_10  QUAL_DIESEL_P_10         -344.6
    SLACK_BOMBAY_HIGH_DIESEL_10  COST                     -180  STRM_BOMBAY_HIGH_DIESEL_10 -1
    HDT_BOMBAY_HIGH_DIESEL_10  COST                     -240  STRM_BOMBAY_HIGH_DIESEL_10 -1
    HDT_BOMBAY_HIGH_DIESEL_10  TSTRM_BOMBAY_HIGH_DIESEL_10 1  HDTCAP_10                1
    BL_BOMBAY_HIGH_DIESEL_DIESEL_P_10  STRM_BOMBAY_HIGH_DIESEL_10 -1  PBAL_DIESEL_P_10         1
    BL_BOMBAY_HIGH_DIESEL_DIESEL_P_10  QUAL_DIESEL_P_10         145
    BL_BOMBAY_HIGH_DIESEL_FUELOIL_10  STRM_BOMBAY_HIGH_DIESEL_10 -1  PBAL_FUELOIL_10          1
    BL_BOMBAY_HIGH_DIESEL_FUELOIL_10  QUAL_FUELOIL_10          -34505
    TSLACK_BOMBAY_HIGH_DIESEL_10  COST                     -180  TSTRM_BOMBAY_HIGH_DIESEL_10 -1
    TBL_BOMBAY_HIGH_DIESEL_DIESEL_P_10  TSTRM_BOMBAY_HIGH_DIESEL_10 -1  PBAL_DIESEL_P_10         1
    TBL_BOMBAY_HIGH_DIESEL_DIESEL_P_10  QUAL_DIESEL_P_10         -330.2
    TBL_BOMBAY_HIGH_DIESEL_FUELOIL_10  TSTRM_BOMBAY_HIGH_DIESEL_10 -1  PBAL_FUELOIL_10          1
    TBL_BOMBAY_HIGH_DIESEL_FUELOIL_10  QUAL_FUELOIL_10          -34980.2
    SLACK_BOMBAY_HIGH_VGO_10  COST                     -180  STRM_BOMBAY_HIGH_VGO_10  -1
    HDT_BOMBAY_HIGH_VGO_10    COST                     -240  STRM_BOMBAY_HIGH_VGO_10  -1
    HDT_BOMBAY_HIGH_VGO_10    TSTRM_BOMBAY_HIGH_VGO_10 1  HDTCAP_10                1
    FCC_BOMBAY_HIGH_10        COST                     -310  STRM_BOMBAY_HIGH_VGO_10  -1
    FCC_BOMBAY_HIGH_10        FSTRM_BOMBAY_HIGH_NAPHTHA_10 0.55  FSTRM_BOMBAY_HIGH_DIESEL_10 0.25
    FCC_BOMBAY_HIGH_10        FCCCAP_10                1
    BL_BOMBAY_HIGH_VGO_DIESEL_P_10  STRM_BOMBAY_HIGH_VGO_10  -1  PBAL_DIESEL_P_10         1
    BL_BOMBAY_HIGH_VGO_DIESEL_P_10  QUAL_DIESEL_P_10         865
    BL_BOMBAY_HIGH_VGO_FUELOIL_10  STRM_BOMBAY_HIGH_VGO_10  -1  PBAL_FUELOIL_10          1
    BL_BOMBAY_HIGH_VGO_FUELOIL_10  QUAL_FUELOIL_10          -33785
    TSLACK_BOMBAY_HIGH_VGO_10  COST                     -180  TSTRM_BOMBAY_HIGH_VGO_10 -1
    TBL_BOMBAY_HIGH_VGO_DIESEL_P_10  TSTRM_BOMBAY_HIGH_VGO_10 -1  PBAL_DIESEL_P_10         1
    TBL_BOMBAY_HIGH_VGO_DIESEL_P_10  QUAL_DIESEL_P_10         -301.4
    TBL_BOMBAY_HIGH_VGO_FUELOIL_10  TSTRM_BOMBAY_HIGH_VGO_10 -1  PBAL_FUELOIL_10          1
    TBL_BOMBAY_HIGH_VGO_FUELOIL_10  QUAL_FUELOIL_10          -34951.4
    SLACK_BOMBAY_HIGH_RESIDUE_10  COST                     -180  STRM_BOMBAY_HIGH_RESIDUE_10 -1
    HDT_BOMBAY_HIGH_RESIDUE_10  COST                     -240  STRM_BOMBAY_HIGH_RESIDUE_10 -1
    HDT_BOMBAY_HIGH_RESIDUE_10  TSTRM_BOMBAY_HIGH_RESIDUE_10 1  HDTCAP_10                1
    BL_BOMBAY_HIGH_RESIDUE_FUELOIL_10  STRM_BOMBAY_HIGH_RESIDUE_10 -1  PBAL_FUELOIL_10          1
    BL_BOMBAY_HIGH_RESIDUE_FUELOIL_10  QUAL_FUELOIL_10          -32660
    TSLACK_BOMBAY_HIGH_RESIDUE_10  COST                     -180  TSTRM_BOMBAY_HIGH_RESIDUE_10 -1
    TBL_BOMBAY_HIGH_RESIDUE_FUELOIL_10  TSTRM_BOMBAY_HIGH_RESIDUE_10 -1  PBAL_FUELOIL_10          1
    TBL_BOMBAY_HIGH_RESIDUE_FUELOIL_10  QUAL_FUELOIL_10          -34906.4
    FSLACK_BOMBAY_HIGH_NAPHTHA_10  COST                     -180  FSTRM_BOMBAY_HIGH_NAPHTHA_10 -1
    FBL_BOMBAY_HIGH_NAPHTHA_GASOLINE_10  FSTRM_BOMBAY_HIGH_NAPHTHA_10 -1  PBAL_GASOLINE_10         1
    FBL_BOMBAY_HIGH_NAPHTHA_GASOLINE_10  QUAL_GASOLINE_10         -43.7
    FBL_BOMBAY_HIGH_NAPHTHA_JET_10  FSTRM_BOMBAY_HIGH_NAPHTHA_10 -1  PBAL_JET_10              1
    FBL_BOMBAY_HIGH_NAPHTHA_JET_10  QUAL_JET_10              -2493.7
    FSLACK_BOMBAY_HIGH_DIESEL_10  COST                     -180  FSTRM_BOMBAY_HIGH_DIESEL_10 -1
    FBL_BOMBAY_HIGH_DIESEL_DIESEL_P_10  FSTRM_BOMBAY_HIGH_DIESEL_10 -1  PBAL_DIESEL_P_10         1
    FBL_BOMBAY_HIGH_DIESEL_DIESEL_P_10  QUAL_DIESEL_P_10         -176.75
    FBL_BOMBAY_HIGH_DIESEL_FUELOIL_10  FSTRM_BOMBAY_HIGH_DIESEL_10 -1  PBAL_FUELOIL_10          1
    FBL_BOMBAY_HIGH_DIESEL_FUELOIL_10  QUAL_FUELOIL_10          -34826.75
    BUY_ARAB_LIGHT_10         COST                     -6420  CBAL_ARAB_LIGHT_10       1
    INVC_ARAB_LIGHT_10        COST                     -77.04  CBAL_ARAB_LIGHT_10       -1
    INVC_ARAB_LIGHT_10        CBAL_ARAB_LIGHT_11       1
    CHG_ARAB_LIGHT_10         COST                     -145  CBAL_ARAB_LIGHT_10       -1
    CHG_ARAB_LIGHT_10         CDUCAP_10                1  STRM_ARAB_LIGHT_NAPHTHA_10 0.22
    CHG_ARAB_LIGHT_10         STRM_ARAB_LIGHT_KERO_10  0.17  STRM_ARAB_LIGHT_DIESEL_10 0.23
    CHG_ARAB_LIGHT_10         STRM_ARAB_LIGHT_VGO_10   0.22  STRM_ARAB_LIGHT_RESIDUE_10 0.16
    SLACK_ARAB_LIGHT_NAPHTHA_10  COST                     -180  STRM_ARAB_LIGHT_NAPHTHA_10 -1
    HDT_ARAB_LIGHT_NAPHTHA_10  COST                     -240  STRM_ARAB_LIGHT_NAPHTHA_10 -1
    HDT_ARAB_LIGHT_NAPHTHA_10  TSTRM_ARAB_LIGHT_NAPHTHA_10 1  HDTCAP_10                1
    BL_ARAB_LIGHT_NAPHTHA_GASOLINE_10  STRM_ARAB_LIGHT_NAPHTHA_10 -1  PBAL_GASOLINE_10         1
    BL_ARAB_LIGHT_NAPHTHA_GASOLINE_10  QUAL_GASOLINE_10         330
    BL_ARAB_LIGHT_NAPHTHA_JET_10  STRM_ARAB_LIGHT_NAPHTHA_10 -1  PBAL_JET_10              1
    BL_ARAB_LIGHT_NAPHTHA_JET_10  QUAL_JET_10              -2120
    TSLACK_ARAB_LIGHT_NAPHTHA_10  COST                     -180  TSTRM_ARAB_LIGHT_NAPHTHA_10 -1
    TBL_ARAB_LIGHT_NAPHTHA_GASOLINE_10  TSTRM_ARAB_LIGHT_NAPHTHA_10 -1  PBAL_GASOLINE_10         1
    TBL_ARAB_LIGHT_NAPHTHA_GASOLINE_10  QUAL_GASOLINE_10         -34.8
    TBL_ARAB_LIGHT_NAPHTHA_JET_10  TSTRM_ARAB_LIGHT_NAPHTHA_10 -1  PBAL_JET_10              1
    TBL_ARAB_LIGHT_NAPHTHA_JET_10  QUAL_JET_10              -2484.8
    SLACK_ARAB_LIGHT_KERO_10  COST                     -180  STRM_ARAB_LIGHT_KERO_10  -1
    HDT_ARAB_LIGHT_KERO_10    COST                     -240  STRM_ARAB_LIGHT_KERO_10  -1
    HDT_ARAB_LIGHT_KERO_10    TSTRM_ARAB_LIGHT_KERO_10 1  HDTCAP_10                1
    BL_ARAB_LIGHT_KERO_GASOLINE_10  STRM_ARAB_LIGHT_KERO_10  -1  PBAL_GASOLINE_10         1
    BL_ARAB_LIGHT_KERO_GASOLINE_10  QUAL_GASOLINE_10         2800
    BL_ARAB_LIGHT_KERO_JET_10  STRM_ARAB_LIGHT_KERO_10  -1  PBAL_JET_10              1
    BL_ARAB_LIGHT_KERO_JET_10  QUAL_JET_10              350
    BL_ARAB_LIGHT_KERO_DIESEL_P_10  STRM_ARAB_LIGHT_KERO_10  -1  PBAL_DIESEL_P_10         1
    BL_ARAB_LIGHT_KERO_DIESEL_P_10  QUAL_DIESEL_P_10         2500
    TSLACK_ARAB_LIGHT_KERO_10  COST                     -180  TSTRM_ARAB_LIGHT_KERO_10 -1
    TBL_ARAB_LIGHT_KERO_GASOLINE_10  TSTRM_ARAB_LIGHT_KERO_10 -1  PBAL_GASOLINE_10         1
    TBL_ARAB_LIGHT_KERO_GASOLINE_10  QUAL_GASOLINE_10         64
    TBL_ARAB_LIGHT_KERO_JET_10  TSTRM_ARAB_LIGHT_KERO_10 -1  PBAL_JET_10              1
    TBL_ARAB_LIGHT_KERO_JET_10  QUAL_JET_10              -2386
    TBL_ARAB_LIGHT_KERO_DIESEL_P_10  TSTRM_ARAB_LIGHT_KERO_10 -1  PBAL_DIESEL_P_10         1
    TBL_ARAB_LIGHT_KERO_DIESEL_P_10  QUAL_DIESEL_P_10         -236
    SLACK_ARAB_LIGHT_DIESEL_10  COST                     -180  STRM_ARAB_LIGHT_DIESEL_10 -1
    HDT_ARAB_LIGHT_DIESEL_10  COST                     -240  STRM_ARAB_LIGHT_DIESEL_10 -1
    HDT_ARAB_LIGHT_DIESEL_10  TSTRM_ARAB_LIGHT_DIESEL_10 1  HDTCAP_10                1
    BL_ARAB_LIGHT_DIESEL_DIESEL_P_10  STRM_ARAB_LIGHT_DIESEL_10 -1  PBAL_DIESEL_P_10         1
    BL_ARAB_LIGHT_DIESEL_DIESEL_P_10  QUAL_DIESEL_P_10         10100
    BL_ARAB_LIGHT_DIESEL_FUELOIL_10  STRM_ARAB_LIGHT_DIESEL_10 -1  PBAL_FUELOIL_10          1
    BL_ARAB_LIGHT_DIESEL_FUELOIL_10  QUAL_FUELOIL_10          -24550
    TSLACK_ARAB_LIGHT_DIESEL_10  COST                     -180  TSTRM_ARAB_LIGHT_DIESEL_10 -1
    TBL_ARAB_LIGHT_DIESEL_DIESEL_P_10  TSTRM_ARAB_LIGHT_DIESEL_10 -1  PBAL_DIESEL_P_10         1
    TBL_ARAB_LIGHT_DIESEL_DIESEL_P_10  QUAL_DIESEL_P_10         68
    TBL_ARAB_LIGHT_DIESEL_FUELOIL_10  TSTRM_ARAB_LIGHT_DIESEL_10 -1  PBAL_FUELOIL_10          1
    TBL_ARAB_LIGHT_DIESEL_FUELOIL_10  QUAL_FUELOIL_10          -34582
    SLACK_ARAB_LIGHT_VGO_10   COST                     -180  STRM_ARAB_LIGHT_VGO_10   -1
    HDT_ARAB_LIGHT_VGO_10     COST                     -240  STRM_ARAB_LIGHT_VGO_10   -1
    HDT_ARAB_LIGHT_VGO_10     TSTRM_ARAB_LIGHT_VGO_10  1  HDTCAP_10                1
    FCC_ARAB_LIGHT_10         COST                     -310  STRM_ARAB_LIGHT_VGO_10   -1
    FCC_ARAB_LIGHT_10         FSTRM_ARAB_LIGHT_NAPHTHA_10 0.55  FSTRM_ARAB_LIGHT_DIESEL_10 0.25
    FCC_ARAB_LIGHT_10         FCCCAP_10                1
    BL_ARAB_LIGHT_VGO_DIESEL_P_10  STRM_ARAB_LIGHT_VGO_10   -1  PBAL_DIESEL_P_10         1
    BL_ARAB_LIGHT_VGO_DIESEL_P_10  QUAL_DIESEL_P_10         25300
    BL_ARAB_LIGHT_VGO_FUELOIL_10  STRM_ARAB_LIGHT_VGO_10   -1  PBAL_FUELOIL_10          1
    BL_ARAB_LIGHT_VGO_FUELOIL_10  QUAL_FUELOIL_10          -9350
    TSLACK_ARAB_LIGHT_VGO_10  COST                     -180  TSTRM_ARAB_LIGHT_VGO_10  -1
    TBL_ARAB_LIGHT_VGO_DIESEL_P_10  TSTRM_ARAB_LIGHT_VGO_10  -1  PBAL_DIESEL_P_10         1
    TBL_ARAB_LIGHT_VGO_DIESEL_P_10  QUAL_DIESEL_P_10         676
    TBL_ARAB_LIGHT_VGO_FUELOIL_10  TSTRM_ARAB_LIGHT_VGO_10  -1  PBAL_FUELOIL_10          1
    TBL_ARAB_LIGHT_VGO_FUELOIL_10  QUAL_FUELOIL_10          -33974
    SLACK_ARAB_LIGHT_RESIDUE_10  COST                     -180  STRM_ARAB_LIGHT_RESIDUE_10 -1
    HDT_ARAB_LIGHT_RESIDUE_10  COST                     -240  STRM_ARAB_LIGHT_RESIDUE_10 -1
    HDT_ARAB_LIGHT_RESIDUE_10  TSTRM_ARAB_LIGHT_RESIDUE_10 1  HDTCAP_10                1
    BL_ARAB_LIGHT_RESIDUE_FUELOIL_10  STRM_ARAB_LIGHT_RESIDUE_10 -1  PBAL_FUELOIL_10          1
    BL_ARAB_LIGHT_RESIDUE_FUELOIL_10  QUAL_FUELOIL_10          14400
    TSLACK_ARAB_LIGHT_RESIDUE_10  COST                     -180  TSTRM_ARAB_LIGHT_RESIDUE_10 -1
    TBL_ARAB_LIGHT_RESIDUE_FUELOIL_10  TSTRM_ARAB_LIGHT_RESIDUE_10 -1  PBAL_FUELOIL_10          1
    TBL_ARAB_LIGHT_RESIDUE_FUELOIL_10  QUAL_FUELOIL_10          -33024
    FSLACK_ARAB_LIGHT_NAPHTHA_10  COST                     -180  FSTRM_ARAB_LIGHT_NAPHTHA_10 -1
    FBL_ARAB_LIGHT_NAPHTHA_GASOLINE_10  FSTRM_ARAB_LIGHT_NAPHTHA_10 -1  PBAL_GASOLINE_10         1
    FBL_ARAB_LIGHT_NAPHTHA_GASOLINE_10  QUAL_GASOLINE_10         83
    FBL_ARAB_LIGHT_NAPHTHA_JET_10  FSTRM_ARAB_LIGHT_NAPHTHA_10 -1  PBAL_JET_10              1
    FBL_ARAB_LIGHT_NAPHTHA_JET_10  QUAL_JET_10              -2367
    FSLACK_ARAB_LIGHT_DIESEL_10  COST                     -180  FSTRM_ARAB_LIGHT_DIESEL_10 -1
    FBL_ARAB_LIGHT_DIESEL_DIESEL_P_10  FSTRM_ARAB_LIGHT_DIESEL_10 -1  PBAL_DIESEL_P_10         1
    FBL_ARAB_LIGHT_DIESEL_DIESEL_P_10  QUAL_DIESEL_P_10         3307.5
    FBL_ARAB_LIGHT_DIESEL_FUELOIL_10  FSTRM_ARAB_LIGHT_DIESEL_10 -1  PBAL_FUELOIL_10          1
    FBL_ARAB_LIGHT_DIESEL_FUELOIL_10  QUAL_FUELOIL_10          -31342.5
    BUY_ARAB_HEAVY_10         COST                     -5980  CBAL_ARAB_HEAVY_10       1
    INVC_ARAB_HEAVY_10        COST                     -71.76  CBAL_ARAB_HEAVY_10       -1
    INVC_ARAB_HEAVY_10        CBAL_ARAB_HEAVY_11       1
    CHG_ARAB_HEAVY_10         COST                     -145  CBAL_ARAB_HEAVY_10       -1
    CHG_ARAB_HEAVY_10         CDUCAP_10                1  STRM_ARAB_HEAVY_NAPHTHA_10 0.16
    CHG_ARAB_HEAVY_10         STRM_ARAB_HEAVY_KERO_10  0.14  STRM_ARAB_HEAVY_DIESEL_10 0.21
    CHG_ARAB_HEAVY_10         STRM_ARAB_HEAVY_VGO_10   0.25  STRM_ARAB_HEAVY_RESIDUE_10 0.24
    SLACK_ARAB_HEAVY_NAPHTHA_10  COST                     -180  STRM_ARAB_HEAVY_NAPHTHA_10 -1
    HDT_ARAB_HEAVY_NAPHTHA_10  COST                     -240  STRM_ARAB_HEAVY_NAPHTHA_10 -1
    HDT_ARAB_HEAVY_NAPHTHA_10  TSTRM_ARAB_HEAVY_NAPHTHA_10 1  HDTCAP_10                1
    BL_ARAB_HEAVY_NAPHTHA_GASOLINE_10  STRM_ARAB_HEAVY_NAPHTHA_10 -1  PBAL_GASOLINE_10         1
    BL_ARAB_HEAVY_NAPHTHA_GASOLINE_10  QUAL_GASOLINE_10         530
    BL_ARAB_HEAVY_NAPHTHA_JET_10  STRM_ARAB_HEAVY_NAPHTHA_10 -1  PBAL_JET_10              1
    BL_ARAB_HEAVY_NAPHTHA_JET_10  QUAL_JET_10              -1920
    TSLACK_ARAB_HEAVY_NAPHTHA_10  COST                     -180  TSTRM_ARAB_HEAVY_NAPHTHA_10 -1
    TBL_ARAB_HEAVY_NAPHTHA_GASOLINE_10  TSTRM_ARAB_HEAVY_NAPHTHA_10 -1  PBAL_GASOLINE_10         1
    TBL_ARAB_HEAVY_NAPHTHA_GASOLINE_10  QUAL_GASOLINE_10         -26.8
    TBL_ARAB_HEAVY_NAPHTHA_JET_10  TSTRM_ARAB_HEAVY_NAPHTHA_10 -1  PBAL_JET_10              1
    TBL_ARAB_HEAVY_NAPHTHA_JET_10  QUAL_JET_10              -2476.8
    SLACK_ARAB_HEAVY_KERO_10  COST                     -180  STRM_ARAB_HEAVY_KERO_10  -1
    HDT_ARAB_HEAVY_KERO_10    COST                     -240  STRM_ARAB_HEAVY_KERO_10  -1
    HDT_ARAB_HEAVY_KERO_10    TSTRM_ARAB_HEAVY_KERO_10 1  HDTCAP_10                1
    BL_ARAB_HEAVY_KERO_GASOLINE_10  STRM_ARAB_HEAVY_KERO_10  -1  PBAL_GASOLINE_10         1
    BL_ARAB_HEAVY_KERO_GASOLINE_10  QUAL_GASOLINE_10         4300
    BL_ARAB_HEAVY_KERO_JET_10  STRM_ARAB_HEAVY_KERO_10  -1  PBAL_JET_10              1
    BL_ARAB_HEAVY_KERO_JET_10  QUAL_JET_10              1850
    BL_ARAB_HEAVY_KERO_DIESEL_P_10  STRM_ARAB_HEAVY_KERO_10  -1  PBAL_DIESEL_P_10         1
    BL_ARAB_HEAVY_KERO_DIESEL_P_10  QUAL_DIESEL_P_10         4000
    TSLACK_ARAB_HEAVY_KERO_10  COST                     -180  TSTRM_ARAB_HEAVY_KERO_10 -1
    TBL_ARAB_HEAVY_KERO_GASOLINE_10  TSTRM_ARAB_HEAVY_KERO_10 -1  PBAL_GASOLINE_10         1
    TBL_ARAB_HEAVY_KERO_GASOLINE_10  QUAL_GASOLINE_10         124
    TBL_ARAB_HEAVY_KERO_JET_10  TSTRM_ARAB_HEAVY_KERO_10 -1  PBAL_JET_10              1
    TBL_ARAB_HEAVY_KERO_JET_10  QUAL_JET_10              -2326
    TBL_ARAB_HEAVY_KERO_DIESEL_P_10  TSTRM_ARAB_HEAVY_KERO_10 -1  PBAL_DIESEL_P_10         1
    TBL_ARAB_HEAVY_KERO_DIESEL_P_10  QUAL_DIESEL_P_10         -176
    SLACK_ARAB_HEAVY_DIESEL_10  COST                     -180  STRM_ARAB_HEAVY_DIESEL_10 -1
    HDT_ARAB_HEAVY_DIESEL_10  COST                     -240  STRM_ARAB_HEAVY_DIESEL_10 -1
    HDT_ARAB_HEAVY_DIESEL_10  TSTRM_ARAB_HEAVY_DIESEL_10 1  HDTCAP_10                1
    BL_ARAB_HEAVY_DIESEL_DIESEL_P_10  STRM_ARAB_HEAVY_DIESEL_10 -1  PBAL_DIESEL_P_10         1
    BL_ARAB_HEAVY_DIESEL_DIESEL_P_10  QUAL_DIESEL_P_10         15600
    BL_ARAB_HEAVY_DIESEL_FUELOIL_10  STRM_ARAB_HEAVY_DIESEL_10 -1  PBAL_FUELOIL_10          1
    BL_ARAB_HEAVY_DIESEL_FUELOIL_10  QUAL_FUELOIL_10          -19050
    TSLACK_ARAB_HEAVY_DIESEL_10  COST                     -180  TSTRM_ARAB_HEAVY_DIESEL_10 -1
    TBL_ARAB_HEAVY_DIESEL_DIESEL_P_10  TSTRM_ARAB_HEAVY_DIESEL_10 -1  PBAL_DIESEL_P_10         1
    TBL_ARAB_HEAVY_DIESEL_DIESEL_P_10  QUAL_DIESEL_P_10         288
    TBL_ARAB_HEAVY_DIESEL_FUELOIL_10  TSTRM_ARAB_HEAVY_DIESEL_10 -1  PBAL_FUELOIL_10          1
    TBL_ARAB_HEAVY_DIESEL_FUELOIL_10  QUAL_FUELOIL_10          -34362
    SLACK_ARAB_HEAVY_VGO_10   COST                     -180  STRM_ARAB_HEAVY_VGO_10   -1
    HDT_ARAB_HEAVY_VGO_10     COST                     -240  STRM_ARAB_HEAVY_VGO_10   -1
    HDT_ARAB_HEAVY_VGO_10     TSTRM_ARAB_HEAVY_VGO_10  1  HDTCAP_10                1
    FCC_ARAB_HEAVY_10         COST                     -310  STRM_ARAB_HEAVY_VGO_10   -1
    FCC_ARAB_HEAVY_10         FSTRM_ARAB_HEAVY_NAPHTHA_10 0.55  FSTRM_ARAB_HEAVY_DIESEL_10 0.25
    FCC_ARAB_HEAVY_10         FCCCAP_10                1
    BL_ARAB_HEAVY_VGO_DIESEL_P_10  STRM_ARAB_HEAVY_VGO_10   -1  PBAL_DIESEL_P_10         1
    BL_ARAB_HEAVY_VGO_DIESEL_P_10  QUAL_DIESEL_P_10         38800
    BL_ARAB_HEAVY_VGO_FUELOIL_10  STRM_ARAB_HEAVY_VGO_10   -1  PBAL_FUELOIL_10          1
    BL_ARAB_HEAVY_VGO_FUELOIL_10  QUAL_FUELOIL_10          4150
    TSLACK_ARAB_HEAVY_VGO_10  COST                     -180  TSTRM_ARAB_HEAVY_VGO_10  -1
    TBL_ARAB_HEAVY_VGO_DIESEL_P_10  TSTRM_ARAB_HEAVY_VGO_10  -1  PBAL_DIESEL_P_10         1
    TBL_ARAB_HEAVY_VGO_DIESEL_P_10  QUAL_DIESEL_P_10         1216
    TBL_ARAB_HEAVY_VGO_FUELOIL_10  TSTRM_ARAB_HEAVY_VGO_10  -1  PBAL_FUELOIL_10          1
    TBL_ARAB_HEAVY_VGO_FUELOIL_10  QUAL_FUELOIL_10          -33434
    SLACK_ARAB_HEAVY_RESIDUE_10  COST                     -180  STRM_ARAB_HEAVY_RESIDUE_10 -1
    HDT_ARAB_HEAVY_RESIDUE_10  COST                     -240  STRM_ARAB_HEAVY_RESIDUE_10 -1
    HDT_ARAB_HEAVY_RESIDUE_10  TSTRM_ARAB_HEAVY_RESIDUE_10 1  HDTCAP_10                1
    BL_ARAB_HEAVY_RESIDUE_FUELOIL_10  STRM_ARAB_HEAVY_RESIDUE_10 -1  PBAL_FUELOIL_10          1
    BL_ARAB_HEAVY_RESIDUE_FUELOIL_10  QUAL_FUELOIL_10          40400
    TSLACK_ARAB_HEAVY_RESIDUE_10  COST                     -180  TSTRM_ARAB_HEAVY_RESIDUE_10 -1
    TBL_ARAB_HEAVY_RESIDUE_FUELOIL_10  TSTRM_ARAB_HEAVY_RESIDUE_10 -1  PBAL_FUELOIL_10          1
    TBL_ARAB_HEAVY_RESIDUE_FUELOIL_10  QUAL_FUELOIL_10          -31984
    FSLACK_ARAB_HEAVY_NAPHTHA_10  COST                     -180  FSTRM_ARAB_HEAVY_NAPHTHA_10 -1
    FBL_ARAB_HEAVY_NAPHTHA_GASOLINE_10  FSTRM_ARAB_HEAVY_NAPHTHA_10 -1  PBAL_GASOLINE_10         1
    FBL_ARAB_HEAVY_NAPHTHA_GASOLINE_10  QUAL_GASOLINE_10         153
    FBL_ARAB_HEAVY_NAPHTHA_JET_10  FSTRM_ARAB_HEAVY_NAPHTHA_10 -1  PBAL_JET_10              1
    FBL_ARAB_HEAVY_NAPHTHA_JET_10  QUAL_JET_10              -2297
    FSLACK_ARAB_HEAVY_DIESEL_10  COST                     -180  FSTRM_ARAB_HEAVY_DIESEL_10 -1
    FBL_ARAB_HEAVY_DIESEL_DIESEL_P_10  FSTRM_ARAB_HEAVY_DIESEL_10 -1  PBAL_DIESEL_P_10         1
    FBL_ARAB_HEAVY_DIESEL_DIESEL_P_10  QUAL_DIESEL_P_10         5232.5
    FBL_ARAB_HEAVY_DIESEL_FUELOIL_10  FSTRM_ARAB_HEAVY_DIESEL_10 -1  PBAL_FUELOIL_10          1
    FBL_ARAB_HEAVY_DIESEL_FUELOIL_10  QUAL_FUELOIL_10          -29417.5
    BUY_BASRAH_10             COST                     -6100  CBAL_BASRAH_10           1
    INVC_BASRAH_10            COST                     -73.2  CBAL_BASRAH_10           -1
    INVC_BASRAH_10            CBAL_BASRAH_11           1
    CHG_BASRAH_10             COST                     -145  CBAL_BASRAH_10           -1
    CHG_BASRAH_10             CDUCAP_10                1  STRM_BASRAH_NAPHTHA_10   0.18
    CHG_BASRAH_10             STRM_BASRAH_KERO_10      0.15  STRM_BASRAH_DIESEL_10    0.22
    CHG_BASRAH_10             STRM_BASRAH_VGO_10       0.24  STRM_BASRAH_RESIDUE_10   0.21
    SLACK_BASRAH_NAPHTHA_10   COST                     -180  STRM_BASRAH_NAPHTHA_10   -1
    HDT_BASRAH_NAPHTHA_10     COST                     -240  STRM_BASRAH_NAPHTHA_10   -1
    HDT_BASRAH_NAPHTHA_10     TSTRM_BASRAH_NAPHTHA_10  1  HDTCAP_10                1
    BL_BASRAH_NAPHTHA_GASOLINE_10  STRM_BASRAH_NAPHTHA_10   -1  PBAL_GASOLINE_10         1
    BL_BASRAH_NAPHTHA_GASOLINE_10  QUAL_GASOLINE_10         440
    BL_BASRAH_NAPHTHA_JET_10  STRM_BASRAH_NAPHTHA_10   -1  PBAL_JET_10              1
    BL_BASRAH_NAPHTHA_JET_10  QUAL_JET_10              -2010
    TSLACK_BASRAH_NAPHTHA_10  COST                     -180  TSTRM_BASRAH_NAPHTHA_10  -1
    TBL_BASRAH_NAPHTHA_GASOLINE_10  TSTRM_BASRAH_NAPHTHA_10  -1  PBAL_GASOLINE_10         1
    TBL_BASRAH_NAPHTHA_GASOLINE_10  QUAL_GASOLINE_10         -30.4
    TBL_BASRAH_NAPHTHA_JET_10  TSTRM_BASRAH_NAPHTHA_10  -1  PBAL_JET_10              1
    TBL_BASRAH_NAPHTHA_JET_10  QUAL_JET_10              -2480.4
    SLACK_BASRAH_KERO_10      COST                     -180  STRM_BASRAH_KERO_10      -1
    HDT_BASRAH_KERO_10        COST                     -240  STRM_BASRAH_KERO_10      -1
    HDT_BASRAH_KERO_10        TSTRM_BASRAH_KERO_10     1  HDTCAP_10                1
    BL_BASRAH_KERO_GASOLINE_10  STRM_BASRAH_KERO_10      -1  PBAL_GASOLINE_10         1
    BL_BASRAH_KERO_GASOLINE_10  QUAL_GASOLINE_10         3625
    BL_BASRAH_KERO_JET_10     STRM_BASRAH_KERO_10      -1  PBAL_JET_10              1
    BL_BASRAH_KERO_JET_10     QUAL_JET_10              1175
    BL_BASRAH_KERO_DIESEL_P_10  STRM_BASRAH_KERO_10      -1  PBAL_DIESEL_P_10         1
    BL_BASRAH_KERO_DIESEL_P_10  QUAL_DIESEL_P_10         3325
    TSLACK_BASRAH_KERO_10     COST                     -180  TSTRM_BASRAH_KERO_10     -1
    TBL_BASRAH_KERO_GASOLINE_10  TSTRM_BASRAH_KERO_10     -1  PBAL_GASOLINE_10         1
    TBL_BASRAH_KERO_GASOLINE_10  QUAL_GASOLINE_10         97
    TBL_BASRAH_KERO_JET_10    TSTRM_BASRAH_KERO_10     -1  PBAL_JET_10              1
    TBL_BASRAH_KERO_JET_10    QUAL_JET_10              -2353
    TBL_BASRAH_KERO_DIESEL_P_10  TSTRM_BASRAH_KERO_10     -1  PBAL_DIESEL_P_10         1
    TBL_BASRAH_KERO_DIESEL_P_10  QUAL_DIESEL_P_10         -203
    SLACK_BASRAH_DIESEL_10    COST                     -180  STRM_BASRAH_DIESEL_10    -1
    HDT_BASRAH_DIESEL_10      COST                     -240  STRM_BASRAH_DIESEL_10    -1
    HDT_BASRAH_DIESEL_10      TSTRM_BASRAH_DIESEL_10   1  HDTCAP_10                1
    BL_BASRAH_DIESEL_DIESEL_P_10  STRM_BASRAH_DIESEL_10    -1  PBAL_DIESEL_P_10         1
    BL_BASRAH_DIESEL_DIESEL_P_10  QUAL_DIESEL_P_10         13125
    BL_BASRAH_DIESEL_FUELOIL_10  STRM_BASRAH_DIESEL_10    -1  PBAL_FUELOIL_10          1
    BL_BASRAH_DIESEL_FUELOIL_10  QUAL_FUELOIL_10          -21525
    TSLACK_BASRAH_DIESEL_10   COST                     -180  TSTRM_BASRAH_DIESEL_10   -1
    TBL_BASRAH_DIESEL_DIESEL_P_10  TSTRM_BASRAH_DIESEL_10   -1  PBAL_DIESEL_P_10         1
    TBL_BASRAH_DIESEL_DIESEL_P_10  QUAL_DIESEL_P_10         189
    TBL_BASRAH_DIESEL_FUELOIL_10  TSTRM_BASRAH_DIESEL_10   -1  PBAL_FUELOIL_10          1
    TBL_BASRAH_DIESEL_FUELOIL_10  QUAL_FUELOIL_10          -34461
    SLACK_BASRAH_VGO_10       COST                     -180  STRM_BASRAH_VGO_10       -1
    HDT_BASRAH_VGO_10         COST                     -240  STRM_BASRAH_VGO_10       -1
    HDT_BASRAH_VGO_10         TSTRM_BASRAH_VGO_10      1  HDTCAP_10                1
    FCC_BASRAH_10             COST                     -310  STRM_BASRAH_VGO_10       -1
    FCC_BASRAH_10             FSTRM_BASRAH_NAPHTHA_10  0.55  FSTRM_BASRAH_DIESEL_10   0.25
    FCC_BASRAH_10             FCCCAP_10                1
    BL_BASRAH_VGO_DIESEL_P_10  STRM_BASRAH_VGO_10       -1  PBAL_DIESEL_P_10         1
    BL_BASRAH_VGO_DIESEL_P_10  QUAL_DIESEL_P_10         32725
    BL_BASRAH_VGO_FUELOIL_10  STRM_BASRAH_VGO_10       -1  PBAL_FUELOIL_10          1
    BL_BASRAH_VGO_FUELOIL_10  QUAL_FUELOIL_10          -1925
    TSLACK_BASRAH_VGO_10      COST                     -180  TSTRM_BASRAH_VGO_10      -1
    TBL_BASRAH_VGO_DIESEL_P_10  TSTRM_BASRAH_VGO_10      -1  PBAL_DIESEL_P_10         1
    TBL_BASRAH_VGO_DIESEL_P_10  QUAL_DIESEL_P_10         973
    TBL_BASRAH_VGO_FUELOIL_10  TSTRM_BASRAH_VGO_10      -1  PBAL_FUELOIL_10          1
    TBL_BASRAH_VGO_FUELOIL_10  QUAL_FUELOIL_10          -33677
    SLACK_BASRAH_RESIDUE_10   COST                     -180  STRM_BASRAH_RESIDUE_10   -1
    HDT_BASRAH_RESIDUE_10     COST                     -240  STRM_BASRAH_RESIDUE_10   -1
    HDT_BASRAH_RESIDUE_10     TSTRM_BASRAH_RESIDUE_10  1  HDTCAP_10                1
    BL_BASRAH_RESIDUE_FUELOIL_10  STRM_BASRAH_RESIDUE_10   -1  PBAL_FUELOIL_10          1
    BL_BASRAH_RESIDUE_FUELOIL_10  QUAL_FUELOIL_10          28700
    TSLACK_BASRAH_RESIDUE_10  COST                     -180  TSTRM_BASRAH_RESIDUE_10  -1
    TBL_BASRAH_RESIDUE_FUELOIL_10  TSTRM_BASRAH_RESIDUE_10  -1  PBAL_FUELOIL_10          1
    TBL_BASRAH_RESIDUE_FUELOIL_10  QUAL_FUELOIL_10          -32452
    FSLACK_BASRAH_NAPHTHA_10  COST                     -180  FSTRM_BASRAH_NAPHTHA_10  -1
    FBL_BASRAH_NAPHTHA_GASOLINE_10  FSTRM_BASRAH_NAPHTHA_10  -1  PBAL_GASOLINE_10         1
    FBL_BASRAH_NAPHTHA_GASOLINE_10  QUAL_GASOLINE_10         121.5
    FBL_BASRAH_NAPHTHA_JET_10  FSTRM_BASRAH_NAPHTHA_10  -1  PBAL_JET_10              1
    FBL_BASRAH_NAPHTHA_JET_10  QUAL_JET_10              -2328.5
    FSLACK_BASRAH_DIESEL_10   COST                     -180  FSTRM_BASRAH_DIESEL_10   -1
    FBL_BASRAH_DIESEL_DIESEL_P_10  FSTRM_BASRAH_DIESEL_10   -1  PBAL_DIESEL_P_10         1
    FBL_BASRAH_DIESEL_DIESEL_P_10  QUAL_DIESEL_P_10         4366.25
    FBL_BASRAH_DIESEL_FUELOIL_10  FSTRM_BASRAH_DIESEL_10   -1  PBAL_FUELOIL_10          1
    FBL_BASRAH_DIESEL_FUELOIL_10  QUAL_FUELOIL_10          -30283.75
    BUY_URALS_10              COST                     -6260  CBAL_URALS_10            1
    INVC_URALS_10             COST                     -75.12  CBAL_URALS_10            -1
    INVC_URALS_10             CBAL_URALS_11            1
    CHG_URALS_10              COST                     -145  CBAL_URALS_10            -1
    CHG_URALS_10              CDUCAP_10                1  STRM_URALS_NAPHTHA_10    0.2
    CHG_URALS_10              STRM_URALS_KERO_10       0.16  STRM_URALS_DIESEL_10     0.24
    CHG_URALS_10              STRM_URALS_VGO_10        0.23  STRM_URALS_RESIDUE_10    0.17
    SLACK_URALS_NAPHTHA_10    COST                     -180  STRM_URALS_NAPHTHA_10    -1
    HDT_URALS_NAPHTHA_10      COST                     -240  STRM_URALS_NAPHTHA_10    -1
    HDT_URALS_NAPHTHA_10      TSTRM_URALS_NAPHTHA_10   1  HDTCAP_10                1
    BL_URALS_NAPHTHA_GASOLINE_10  STRM_URALS_NAPHTHA_10    -1  PBAL_GASOLINE_10         1
    BL_URALS_NAPHTHA_GASOLINE_10  QUAL_GASOLINE_10         226
    BL_URALS_NAPHTHA_JET_10   STRM_URALS_NAPHTHA_10    -1  PBAL_JET_10              1
    BL_URALS_NAPHTHA_JET_10   QUAL_JET_10              -2224
    TSLACK_URALS_NAPHTHA_10   COST                     -180  TSTRM_URALS_NAPHTHA_10   -1
    TBL_URALS_NAPHTHA_GASOLINE_10  TSTRM_URALS_NAPHTHA_10   -1  PBAL_GASOLINE_10         1
    TBL_URALS_NAPHTHA_GASOLINE_10  QUAL_GASOLINE_10         -38.96
    TBL_URALS_NAPHTHA_JET_10  TSTRM_URALS_NAPHTHA_10   -1  PBAL_JET_10              1
    TBL_URALS_NAPHTHA_JET_10  QUAL_JET_10              -2488.96
    SLACK_URALS_KERO_10       COST                     -180  STRM_URALS_KERO_10       -1
    HDT_URALS_KERO_10         COST                     -240  STRM_URALS_KERO_10       -1
    HDT_URALS_KERO_10         TSTRM_URALS_KERO_10      1  HDTCAP_10                1
    BL_URALS_KERO_GASOLINE_10  STRM_URALS_KERO_10       -1  PBAL_GASOLINE_10         1
    BL_URALS_KERO_GASOLINE_10  QUAL_GASOLINE_10         2020
    BL_URALS_KERO_JET_10      STRM_URALS_KERO_10       -1  PBAL_JET_10              1
    BL_URALS_KERO_JET_10      QUAL_JET_10              -430
    BL_URALS_KERO_DIESEL_P_10  STRM_URALS_KERO_10       -1  PBAL_DIESEL_P_10         1
    BL_URALS_KERO_DIESEL_P_10  QUAL_DIESEL_P_10         1720
    TSLACK_URALS_KERO_10      COST                     -180  TSTRM_URALS_KERO_10      -1
    TBL_URALS_KERO_GASOLINE_10  TSTRM_URALS_KERO_10      -1  PBAL_GASOLINE_10         1
    TBL_URALS_KERO_GASOLINE_10  QUAL_GASOLINE_10         32.8
    TBL_URALS_KERO_JET_10     TSTRM_URALS_KERO_10      -1  PBAL_JET_10              1
    TBL_URALS_KERO_JET_10     QUAL_JET_10              -2417.2
    TBL_URALS_KERO_DIESEL_P_10  TSTRM_URALS_KERO_10      -1  PBAL_DIESEL_P_10         1
    TBL_URALS_KERO_DIESEL_P_10  QUAL_DIESEL_P_10         -267.2
    SLACK_URALS_DIESEL_10     COST                     -180  STRM_URALS_DIESEL_10     -1
    HDT_URALS_DIESEL_10       COST                     -240  STRM_URALS_DIESEL_10     -1
    HDT_URALS_DIESEL_10       TSTRM_URALS_DIESEL_10    1  HDTCAP_10                1
    BL_URALS_DIESEL_DIESEL_P_10  STRM_URALS_DIESEL_10     -1  PBAL_DIESEL_P_10         1
    BL_URALS_DIESEL_DIESEL_P_10  QUAL_DIESEL_P_10         7240
    BL_URALS_DIESEL_FUELOIL_10  STRM_URALS_DIESEL_10     -1  PBAL_FUELOIL_10          1
    BL_URALS_DIESEL_FUELOIL_10  QUAL_FUELOIL_10          -27410
    TSLACK_URALS_DIESEL_10    COST                     -180  TSTRM_URALS_DIESEL_10    -1
    TBL_URALS_DIESEL_DIESEL_P_10  TSTRM_URALS_DIESEL_10    -1  PBAL_DIESEL_P_10         1
    TBL_URALS_DIESEL_DIESEL_P_10  QUAL_DIESEL_P_10         -46.4
    TBL_URALS_DIESEL_FUELOIL_10  TSTRM_URALS_DIESEL_10    -1  PBAL_FUELOIL_10          1
    TBL_URALS_DIESEL_FUELOIL_10  QUAL_FUELOIL_10          -34696.4
    SLACK_URALS_VGO_10        COST                     -180  STRM_URALS_VGO_10        -1
    HDT_URALS_VGO_10          COST                     -240  STRM_URALS_VGO_10        -1
    HDT_URALS_VGO_10          TSTRM_URALS_VGO_10       1  HDTCAP_10                1
    FCC_URALS_10              COST                     -310  STRM_URALS_VGO_10        -1
    FCC_URALS_10              FSTRM_URALS_NAPHTHA_10   0.55  FSTRM_URALS_DIESEL_10    0.25
    FCC_URALS_10              FCCCAP_10                1
    BL_URALS_VGO_DIESEL_P_10  STRM_URALS_VGO_10        -1  PBAL_DIESEL_P_10         1
    BL_URALS_VGO_DIESEL_P_10  QUAL_DIESEL_P_10         18280
    BL_URALS_VGO_FUELOIL_10   STRM_URALS_VGO_10        -1  PBAL_FUELOIL_10          1
    BL_URALS_VGO_FUELOIL_10   QUAL_FUELOIL_10          -16370
    TSLACK_URALS_VGO_10       COST                     -180  TSTRM_URALS_VGO_10       -1
    TBL_URALS_VGO_DIESEL_P_10  TSTRM_URALS_VGO_10       -1  PBAL_DIESEL_P_10         1
    TBL_URALS_VGO_DIESEL_P_10  QUAL_DIESEL_P_10         395.2
    TBL_URALS_VGO_FUELOIL_10  TSTRM_URALS_VGO_10       -1  PBAL_FUELOIL_10          1
    TBL_URALS_VGO_FUELOIL_10  QUAL_FUELOIL_10          -34254.8
    SLACK_URALS_RESIDUE_10    COST                     -180  STRM_URALS_RESIDUE_10    -1
    HDT_URALS_RESIDUE_10      COST                     -240  STRM_URALS_RESIDUE_10    -1
    HDT_URALS_RESIDUE_10      TSTRM_URALS_RESIDUE_10   1  HDTCAP_10                1
    BL_URALS_RESIDUE_FUELOIL_10  STRM_URALS_RESIDUE_10    -1  PBAL_FUELOIL_10          1
    BL_URALS_RESIDUE_FUELOIL_10  QUAL_FUELOIL_10          880
    TSLACK_URALS_RESIDUE_10   COST                     -180  TSTRM_URALS_RESIDUE_10   -1
    TBL_URALS_RESIDUE_FUELOIL_10  TSTRM_URALS_RESIDUE_10   -1  PBAL_FUELOIL_10          1
    TBL_URALS_RESIDUE_FUELOIL_10  QUAL_FUELOIL_10          -33564.8
    FSLACK_URALS_NAPHTHA_10   COST                     -180  FSTRM_URALS_NAPHTHA_10   -1
    FBL_URALS_NAPHTHA_GASOLINE_10  FSTRM_URALS_NAPHTHA_10   -1  PBAL_GASOLINE_10         1
    FBL_URALS_NAPHTHA_GASOLINE_10  QUAL_GASOLINE_10         46.6
    FBL_URALS_NAPHTHA_JET_10  FSTRM_URALS_NAPHTHA_10   -1  PBAL_JET_10              1
    FBL_URALS_NAPHTHA_JET_10  QUAL_JET_10              -2403.4
    FSLACK_URALS_DIESEL_10    COST                     -180  FSTRM_URALS_DIESEL_10    -1
    FBL_URALS_DIESEL_DIESEL_P_10  FSTRM_URALS_DIESEL_10    -1  PBAL_DIESEL_P_10         1
    FBL_URALS_DIESEL_DIESEL_P_10  QUAL_DIESEL_P_10         2306.5
    FBL_URALS_DIESEL_FUELOIL_10  FSTRM_URALS_DIESEL_10    -1  PBAL_FUELOIL_10          1
    FBL_URALS_DIESEL_FUELOIL_10  QUAL_FUELOIL_10          -32343.5
    BUY_MURBAN_10             COST                     -6980  CBAL_MURBAN_10           1
    INVC_MURBAN_10            COST                     -83.76  CBAL_MURBAN_10           -1
    INVC_MURBAN_10            CBAL_MURBAN_11           1
    CHG_MURBAN_10             COST                     -145  CBAL_MURBAN_10           -1
    CHG_MURBAN_10             CDUCAP_10                1  STRM_MURBAN_NAPHTHA_10   0.28
    CHG_MURBAN_10             STRM_MURBAN_KERO_10      0.19  STRM_MURBAN_DIESEL_10    0.23
    CHG_MURBAN_10             STRM_MURBAN_VGO_10       0.19  STRM_MURBAN_RESIDUE_10   0.11
    SLACK_MURBAN_NAPHTHA_10   COST                     -180  STRM_MURBAN_NAPHTHA_10   -1
    HDT_MURBAN_NAPHTHA_10     COST                     -240  STRM_MURBAN_NAPHTHA_10   -1
    HDT_MURBAN_NAPHTHA_10     TSTRM_MURBAN_NAPHTHA_10  1  HDTCAP_10                1
    BL_MURBAN_NAPHTHA_GASOLINE_10  STRM_MURBAN_NAPHTHA_10   -1  PBAL_GASOLINE_10         1
    BL_MURBAN_NAPHTHA_GASOLINE_10  QUAL_GASOLINE_10         98
    BL_MURBAN_NAPHTHA_JET_10  STRM_MURBAN_NAPHTHA_10   -1  PBAL_JET_10              1
    BL_MURBAN_NAPHTHA_JET_10  QUAL_JET_10              -2352
    TSLACK_MURBAN_NAPHTHA_10  COST                     -180  TSTRM_MURBAN_NAPHTHA_10  -1
    TBL_MURBAN_NAPHTHA_GASOLINE_10  TSTRM_MURBAN_NAPHTHA_10  -1  PBAL_GASOLINE_10         1
    TBL_MURBAN_NAPHTHA_GASOLINE_10  QUAL_GASOLINE_10         -44.08
    TBL_MURBAN_NAPHTHA_JET_10  TSTRM_MURBAN_NAPHTHA_10  -1  PBAL_JET_10              1
    TBL_MURBAN_NAPHTHA_JET_10  QUAL_JET_10              -2494.08
    SLACK_MURBAN_KERO_10      COST                     -180  STRM_MURBAN_KERO_10      -1
    HDT_MURBAN_KERO_10        COST                     -240  STRM_MURBAN_KERO_10      -1
    HDT_MURBAN_KERO_10        TSTRM_MURBAN_KERO_10     1  HDTCAP_10                1
    BL_MURBAN_KERO_GASOLINE_10  STRM_MURBAN_KERO_10      -1  PBAL_GASOLINE_10         1
    BL_MURBAN_KERO_GASOLINE_10  QUAL_GASOLINE_10         1060
    BL_MURBAN_KERO_JET_10     STRM_MURBAN_KERO_10      -1  PBAL_JET_10              1
    BL_MURBAN_KERO_JET_10     QUAL_JET_10              -1390
    BL_MURBAN_KERO_DIESEL_P_10  STRM_MURBAN_KERO_10      -1  PBAL_DIESEL_P_10         1
    BL_MURBAN_KERO_DIESEL_P_10  QUAL_DIESEL_P_10         760
    TSLACK_MURBAN_KERO_10     COST                     -180  TSTRM_MURBAN_KERO_10     -1
    TBL_MURBAN_KERO_GASOLINE_10  TSTRM_MURBAN_KERO_10     -1  PBAL_GASOLINE_10         1
    TBL_MURBAN_KERO_GASOLINE_10  QUAL_GASOLINE_10         -5.6
    TBL_MURBAN_KERO_JET_10    TSTRM_MURBAN_KERO_10     -1  PBAL_JET_10              1
    TBL_MURBAN_KERO_JET_10    QUAL_JET_10              -2455.6
    TBL_MURBAN_KERO_DIESEL_P_10  TSTRM_MURBAN_KERO_10     -1  PBAL_DIESEL_P_10         1
    TBL_MURBAN_KERO_DIESEL_P_10  QUAL_DIESEL_P_10         -305.6
    SLACK_MURBAN_DIESEL_10    COST                     -180  STRM_MURBAN_DIESEL_10    -1
    HDT_MURBAN_DIESEL_10      COST                     -240  STRM_MURBAN_DIESEL_10    -1
    HDT_MURBAN_DIESEL_10      TSTRM_MURBAN_DIESEL_10   1  HDTCAP_10                1
    BL_MURBAN_DIESEL_DIESEL_P_10  STRM_MURBAN_DIESEL_10    -1  PBAL_DIESEL_P_10         1
    BL_MURBAN_DIESEL_DIESEL_P_10  QUAL_DIESEL_P_10         3720
    BL_MURBAN_DIESEL_FUELOIL_10  STRM_MURBAN_DIESEL_10    -1  PBAL_FUELOIL_10          1
    BL_MURBAN_DIESEL_FUELOIL_10  QUAL_FUELOIL_10          -30930
    TSLACK_MURBAN_DIESEL_10   COST                     -180  TSTRM_MURBAN_DIESEL_10   -1
    TBL_MURBAN_DIESEL_DIESEL_P_10  TSTRM_MURBAN_DIESEL_10   -1  PBAL_DIESEL_P_10         1
    TBL_MURBAN_DIESEL_DIESEL_P_10  QUAL_DIESEL_P_10         -187.2
    TBL_MURBAN_DIESEL_FUELOIL_10  TSTRM_MURBAN_DIESEL_10   -1  PBAL_FUELOIL_10          1
    TBL_MURBAN_DIESEL_FUELOIL_10  QUAL_FUELOIL_10          -34837.2
    SLACK_MURBAN_VGO_10       COST                     -180  STRM_MURBAN_VGO_10       -1
    HDT_MURBAN_VGO_10         COST                     -240  STRM_MURBAN_VGO_10       -1
    HDT_MURBAN_VGO_10         TSTRM_MURBAN_VGO_10      1  HDTCAP_10                1
    FCC_MURBAN_10             COST                     -310  STRM_MURBAN_VGO_10       -1
    FCC_MURBAN_10             FSTRM_MURBAN_NAPHTHA_10  0.55  FSTRM_MURBAN_DIESEL_10   0.25
    FCC_MURBAN_10             FCCCAP_10                1
    BL_MURBAN_VGO_DIESEL_P_10  STRM_MURBAN_VGO_10       -1  PBAL_DIESEL_P_10         1
    BL_MURBAN_VGO_DIESEL_P_10  QUAL_DIESEL_P_10         9640
    BL_MURBAN_VGO_FUELOIL_10  STRM_MURBAN_VGO_10       -1  PBAL_FUELOIL_10          1
    BL_MURBAN_VGO_FUELOIL_10  QUAL_FUELOIL_10          -25010
    TSLACK_MURBAN_VGO_10      COST                     -180  TSTRM_MURBAN_VGO_10      -1
    TBL_MURBAN_VGO_DIESEL_P_10  TSTRM_MURBAN_VGO_10      -1  PBAL_DIESEL_P_10         1
    TBL_MURBAN_VGO_DIESEL_P_10  QUAL_DIESEL_P_10         49.6
    TBL_MURBAN_VGO_FUELOIL_10  TSTRM_MURBAN_VGO_10      -1  PBAL_FUELOIL_10          1
    TBL_MURBAN_VGO_FUELOIL_10  QUAL_FUELOIL_10          -34600.4
    SLACK_MURBAN_RESIDUE_10   COST                     -180  STRM_MURBAN_RESIDUE_10   -1
    HDT_MURBAN_RESIDUE_10     COST                     -240  STRM_MURBAN_RESIDUE_10   -1
    HDT_MURBAN_RESIDUE_10     TSTRM_MURBAN_RESIDUE_10  1  HDTCAP_10                1
    BL_MURBAN_RESIDUE_FUELOIL_10  STRM_MURBAN_RESIDUE_10   -1  PBAL_FUELOIL_10          1
    BL_MURBAN_RESIDUE_FUELOIL_10  QUAL_FUELOIL_10          -15760
    TSLACK_MURBAN_RESIDUE_10  COST                     -180  TSTRM_MURBAN_RESIDUE_10  -1
    TBL_MURBAN_RESIDUE_FUELOIL_10  TSTRM_MURBAN_RESIDUE_10  -1  PBAL_FUELOIL_10          1
    TBL_MURBAN_RESIDUE_FUELOIL_10  QUAL_FUELOIL_10          -34230.4
    FSLACK_MURBAN_NAPHTHA_10  COST                     -180  FSTRM_MURBAN_NAPHTHA_10  -1
    FBL_MURBAN_NAPHTHA_GASOLINE_10  FSTRM_MURBAN_NAPHTHA_10  -1  PBAL_GASOLINE_10         1
    FBL_MURBAN_NAPHTHA_GASOLINE_10  QUAL_GASOLINE_10         1.8
    FBL_MURBAN_NAPHTHA_JET_10  FSTRM_MURBAN_NAPHTHA_10  -1  PBAL_JET_10              1
    FBL_MURBAN_NAPHTHA_JET_10  QUAL_JET_10              -2448.2
    FSLACK_MURBAN_DIESEL_10   COST                     -180  FSTRM_MURBAN_DIESEL_10   -1
    FBL_MURBAN_DIESEL_DIESEL_P_10  FSTRM_MURBAN_DIESEL_10   -1  PBAL_DIESEL_P_10         1
    FBL_MURBAN_DIESEL_DIESEL_P_10  QUAL_DIESEL_P_10         1074.5
    FBL_MURBAN_DIESEL_FUELOIL_10  FSTRM_MURBAN_DIESEL_10   -1  PBAL_FUELOIL_10          1
    FBL_MURBAN_DIESEL_FUELOIL_10  QUAL_FUELOIL_10          -33575.5
    BUY_ES_SIDER_10           COST                     -6540  CBAL_ES_SIDER_10         1
    INVC_ES_SIDER_10          COST                     -78.48  CBAL_ES_SIDER_10         -1
    INVC_ES_SIDER_10          CBAL_ES_SIDER_11         1
    CHG_ES_SIDER_10           COST                     -145  CBAL_ES_SIDER_10         -1
    CHG_ES_SIDER_10           CDUCAP_10                1  STRM_ES_SIDER_NAPHTHA_10 0.25
    CHG_ES_SIDER_10           STRM_ES_SIDER_KERO_10    0.18  STRM_ES_SIDER_DIESEL_10  0.25
    CHG_ES_SIDER_10           STRM_ES_SIDER_VGO_10     0.2  STRM_ES_SIDER_RESIDUE_10 0.12
    SLACK_ES_SIDER_NAPHTHA_10  COST                     -180  STRM_ES_SIDER_NAPHTHA_10 -1
    HDT_ES_SIDER_NAPHTHA_10   COST                     -240  STRM_ES_SIDER_NAPHTHA_10 -1
    HDT_ES_SIDER_NAPHTHA_10   TSTRM_ES_SIDER_NAPHTHA_10 1  HDTCAP_10                1
    BL_ES_SIDER_NAPHTHA_GASOLINE_10  STRM_ES_SIDER_NAPHTHA_10 -1  PBAL_GASOLINE_10         1
    BL_ES_SIDER_NAPHTHA_GASOLINE_10  QUAL_GASOLINE_10         32
    BL_ES_SIDER_NAPHTHA_JET_10  STRM_ES_SIDER_NAPHTHA_10 -1  PBAL_JET_10              1
    BL_ES_SIDER_NAPHTHA_JET_10  QUAL_JET_10              -2418
    TSLACK_ES_SIDER_NAPHTHA_10  COST                     -180  TSTRM_ES_SIDER_NAPHTHA_10 -1
    TBL_ES_SIDER_NAPHTHA_GASOLINE_10  TSTRM_ES_SIDER_NAPHTHA_10 -1  PBAL_GASOLINE_10         1
    TBL_ES_SIDER_NAPHTHA_GASOLINE_10  QUAL_GASOLINE_10         -46.72
    TBL_ES_SIDER_NAPHTHA_JET_10  TSTRM_ES_SIDER_NAPHTHA_10 -1  PBAL_JET_10              1
    TBL_ES_SIDER_NAPHTHA_JET_10  QUAL_JET_10              -2496.72
    SLACK_ES_SIDER_KERO_10    COST                     -180  STRM_ES_SIDER_KERO_10    -1
    HDT_ES_SIDER_KERO_10      COST                     -240  STRM_ES_SIDER_KERO_10    -1
    HDT_ES_SIDER_KERO_10      TSTRM_ES_SIDER_KERO_10   1  HDTCAP_10                1
    BL_ES_SIDER_KERO_GASOLINE_10  STRM_ES_SIDER_KERO_10    -1  PBAL_GASOLINE_10         1
    BL_ES_SIDER_KERO_GASOLINE_10  QUAL_GASOLINE_10         565
    BL_ES_SIDER_KERO_JET_10   STRM_ES_SIDER_KERO_10    -1  PBAL_JET_10              1
    BL_ES_SIDER_KERO_JET_10   QUAL_JET_10              -1885
    BL_ES_SIDER_KERO_DIESEL_P_10  STRM_ES_SIDER_KERO_10    -1  PBAL_DIESEL_P_10         1
    BL_ES_SIDER_KERO_DIESEL_P_10  QUAL_DIESEL_P_10         265
    TSLACK_ES_SIDER_KERO_10   COST                     -180  TSTRM_ES_SIDER_KERO_10   -1
    TBL_ES_SIDER_KERO_GASOLINE_10  TSTRM_ES_SIDER_KERO_10   -1  PBAL_GASOLINE_10         1
    TBL_ES_SIDER_KERO_GASOLINE_10  QUAL_GASOLINE_10         -25.4
    TBL_ES_SIDER_KERO_JET_10  TSTRM_ES_SIDER_KERO_10   -1  PBAL_JET_10              1
    TBL_ES_SIDER_KERO_JET_10  QUAL_JET_10              -2475.4
    TBL_ES_SIDER_KERO_DIESEL_P_10  TSTRM_ES_SIDER_KERO_10   -1  PBAL_DIESEL_P_10         1
    TBL_ES_SIDER_KERO_DIESEL_P_10  QUAL_DIESEL_P_10         -325.4
    SLACK_ES_SIDER_DIESEL_10  COST                     -180  STRM_ES_SIDER_DIESEL_10  -1
    HDT_ES_SIDER_DIESEL_10    COST                     -240  STRM_ES_SIDER_DIESEL_10  -1
    HDT_ES_SIDER_DIESEL_10    TSTRM_ES_SIDER_DIESEL_10 1  HDTCAP_10                1
    BL_ES_SIDER_DIESEL_DIESEL_P_10  STRM_ES_SIDER_DIESEL_10  -1  PBAL_DIESEL_P_10         1
    BL_ES_SIDER_DIESEL_DIESEL_P_10  QUAL_DIESEL_P_10         1905
    BL_ES_SIDER_DIESEL_FUELOIL_10  STRM_ES_SIDER_DIESEL_10  -1  PBAL_FUELOIL_10          1
    BL_ES_SIDER_DIESEL_FUELOIL_10  QUAL_FUELOIL_10          -32745
    TSLACK_ES_SIDER_DIESEL_10  COST                     -180  TSTRM_ES_SIDER_DIESEL_10 -1
    TBL_ES_SIDER_DIESEL_DIESEL_P_10  TSTRM_ES_SIDER_DIESEL_10 -1  PBAL_DIESEL_P_10         1
    TBL_ES_SIDER_DIESEL_DIESEL_P_10  QUAL_DIESEL_P_10         -259.8
    TBL_ES_SIDER_DIESEL_FUELOIL_10  TSTRM_ES_SIDER_DIESEL_10 -1  PBAL_FUELOIL_10          1
    TBL_ES_SIDER_DIESEL_FUELOIL_10  QUAL_FUELOIL_10          -34909.8
    SLACK_ES_SIDER_VGO_10     COST                     -180  STRM_ES_SIDER_VGO_10     -1
    HDT_ES_SIDER_VGO_10       COST                     -240  STRM_ES_SIDER_VGO_10     -1
    HDT_ES_SIDER_VGO_10       TSTRM_ES_SIDER_VGO_10    1  HDTCAP_10                1
    FCC_ES_SIDER_10           COST                     -310  STRM_ES_SIDER_VGO_10     -1
    FCC_ES_SIDER_10           FSTRM_ES_SIDER_NAPHTHA_10 0.55  FSTRM_ES_SIDER_DIESEL_10 0.25
    FCC_ES_SIDER_10           FCCCAP_10                1
    BL_ES_SIDER_VGO_DIESEL_P_10  STRM_ES_SIDER_VGO_10     -1  PBAL_DIESEL_P_10         1
    BL_ES_SIDER_VGO_DIESEL_P_10  QUAL_DIESEL_P_10         5185
    BL_ES_SIDER_VGO_FUELOIL_10  STRM_ES_SIDER_VGO_10     -1  PBAL_FUELOIL_10          1
    BL_ES_SIDER_VGO_FUELOIL_10  QUAL_FUELOIL_10          -29465
    TSLACK_ES_SIDER_VGO_10    COST                     -180  TSTRM_ES_SIDER_VGO_10    -1
    TBL_ES_SIDER_VGO_DIESEL_P_10  TSTRM_ES_SIDER_VGO_10    -1  PBAL_DIESEL_P_10         1
    TBL_ES_SIDER_VGO_DIESEL_P_10  QUAL_DIESEL_P_10         -128.6
    TBL_ES_SIDER_VGO_FUELOIL_10  TSTRM_ES_SIDER_VGO_10    -1  PBAL_FUELOIL_10          1
    TBL_ES_SIDER_VGO_FUELOIL_10  QUAL_FUELOIL_10          -34778.6
    SLACK_ES_SIDER_RESIDUE_10  COST                     -180  STRM_ES_SIDER_RESIDUE_10 -1
    HDT_ES_SIDER_RESIDUE_10   COST                     -240  STRM_ES_SIDER_RESIDUE_10 -1
    HDT_ES_SIDER_RESIDUE_10   TSTRM_ES_SIDER_RESIDUE_10 1  HDTCAP_10                1
    BL_ES_SIDER_RESIDUE_FUELOIL_10  STRM_ES_SIDER_RESIDUE_10 -1  PBAL_FUELOIL_10          1
    BL_ES_SIDER_RESIDUE_FUELOIL_10  QUAL_FUELOIL_10          -24340
    TSLACK_ES_SIDER_RESIDUE_10  COST                     -180  TSTRM_ES_SIDER_RESIDUE_10 -1
    TBL_ES_SIDER_RESIDUE_FUELOIL_10  TSTRM_ES_SIDER_RESIDUE_10 -1  PBAL_FUELOIL_10          1
    TBL_ES_SIDER_RESIDUE_FUELOIL_10  QUAL_FUELOIL_10          -34573.6
    FSLACK_ES_SIDER_NAPHTHA_10  COST                     -180  FSTRM_ES_SIDER_NAPHTHA_10 -1
    FBL_ES_SIDER_NAPHTHA_GASOLINE_10  FSTRM_ES_SIDER_NAPHTHA_10 -1  PBAL_GASOLINE_10         1
    FBL_ES_SIDER_NAPHTHA_GASOLINE_10  QUAL_GASOLINE_10         -21.3
    FBL_ES_SIDER_NAPHTHA_JET_10  FSTRM_ES_SIDER_NAPHTHA_10 -1  PBAL_JET_10              1
    FBL_ES_SIDER_NAPHTHA_JET_10  QUAL_JET_10              -2471.3
    FSLACK_ES_SIDER_DIESEL_10  COST                     -180  FSTRM_ES_SIDER_DIESEL_10 -1
    FBL_ES_SIDER_DIESEL_DIESEL_P_10  FSTRM_ES_SIDER_DIESEL_10 -1  PBAL_DIESEL_P_10         1
    FBL_ES_SIDER_DIESEL_DIESEL_P_10  QUAL_DIESEL_P_10         439.25
    FBL_ES_SIDER_DIESEL_FUELOIL_10  FSTRM_ES_SIDER_DIESEL_10 -1  PBAL_FUELOIL_10          1
    FBL_ES_SIDER_DIESEL_FUELOIL_10  QUAL_FUELOIL_10          -34210.75
    BUY_QUA_IBOE_10           COST                     -6890  CBAL_QUA_IBOE_10         1
    INVC_QUA_IBOE_10          COST                     -82.68  CBAL_QUA_IBOE_10         -1
    INVC_QUA_IBOE_10          CBAL_QUA_IBOE_11         1
    CHG_QUA_IBOE_10           COST                     -145  CBAL_QUA_IBOE_10         -1
    CHG_QUA_IBOE_10           CDUCAP_10                1  STRM_QUA_IBOE_NAPHTHA_10 0.27
    CHG_QUA_IBOE_10           STRM_QUA_IBOE_KERO_10    0.2  STRM_QUA_IBOE_DIESEL_10  0.25
    CHG_QUA_IBOE_10           STRM_QUA_IBOE_VGO_10     0.18  STRM_QUA_IBOE_RESIDUE_10 0.1
    SLACK_QUA_IBOE_NAPHTHA_10  COST                     -180  STRM_QUA_IBOE_NAPHTHA_10 -1
    HDT_QUA_IBOE_NAPHTHA_10   COST                     -240  STRM_QUA_IBOE_NAPHTHA_10 -1
    HDT_QUA_IBOE_NAPHTHA_10   TSTRM_QUA_IBOE_NAPHTHA_10 1  HDTCAP_10                1
    BL_QUA_IBOE_NAPHTHA_GASOLINE_10  STRM_QUA_IBOE_NAPHTHA_10 -1  PBAL_GASOLINE_10         1
    BL_QUA_IBOE_NAPHTHA_GASOLINE_10  QUAL_GASOLINE_10         -24
    BL_QUA_IBOE_NAPHTHA_JET_10  STRM_QUA_IBOE_NAPHTHA_10 -1  PBAL_JET_10              1
    BL_QUA_IBOE_NAPHTHA_JET_10  QUAL_JET_10              -2474
    TSLACK_QUA_IBOE_NAPHTHA_10  COST                     -180  TSTRM_QUA_IBOE_NAPHTHA_10 -1
    TBL_QUA_IBOE_NAPHTHA_GASOLINE_10  TSTRM_QUA_IBOE_NAPHTHA_10 -1  PBAL_GASOLINE_10         1
    TBL_QUA_IBOE_NAPHTHA_GASOLINE_10  QUAL_GASOLINE_10         -48.96
    TBL_QUA_IBOE_NAPHTHA_JET_10  TSTRM_QUA_IBOE_NAPHTHA_10 -1  PBAL_JET_10              1
    TBL_QUA_IBOE_NAPHTHA_JET_10  QUAL_JET_10              -2498.96
    SLACK_QUA_IBOE_KERO_10    COST                     -180  STRM_QUA_IBOE_KERO_10    -1
    HDT_QUA_IBOE_KERO_10      COST                     -240  STRM_QUA_IBOE_KERO_10    -1
    HDT_QUA_IBOE_KERO_10      TSTRM_QUA_IBOE_KERO_10   1  HDTCAP_10                1
    BL_QUA_IBOE_KERO_GASOLINE_10  STRM_QUA_IBOE_KERO_10    -1  PBAL_GASOLINE_10         1
    BL_QUA_IBOE_KERO_GASOLINE_10  QUAL_GASOLINE_10         145
    BL_QUA_IBOE_KERO_JET_10   STRM_QUA_IBOE_KERO_10    -1  PBAL_JET_10              1
    BL_QUA_IBOE_KERO_JET_10   QUAL_JET_10              -2305
    BL_QUA_IBOE_KERO_DIESEL_P_10  STRM_QUA_IBOE_KERO_10    -1  PBAL_DIESEL_P_10         1
    BL_QUA_IBOE_KERO_DIESEL_P_10  QUAL_DIESEL_P_10         -155
    TSLACK_QUA_IBOE_KERO_10   COST                     -180  TSTRM_QUA_IBOE_KERO_10   -1
    TBL_QUA_IBOE_KERO_GASOLINE_10  TSTRM_QUA_IBOE_KERO_10   -1  PBAL_GASOLINE_10         1
    TBL_QUA_IBOE_KERO_GASOLINE_10  QUAL_GASOLINE_10         -42.2
    TBL_QUA_IBOE_KERO_JET_10  TSTRM_QUA_IBOE_KERO_10   -1  PBAL_JET_10              1
    TBL_QUA_IBOE_KERO_JET_10  QUAL_JET_10              -2492.2
    TBL_QUA_IBOE_KERO_DIESEL_P_10  TSTRM_QUA_IBOE_KERO_10   -1  PBAL_DIESEL_P_10         1
    TBL_QUA_IBOE_KERO_DIESEL_P_10  QUAL_DIESEL_P_10         -342.2
    SLACK_QUA_IBOE_DIESEL_10  COST                     -180  STRM_QUA_IBOE_DIESEL_10  -1
    HDT_QUA_IBOE_DIESEL_10    COST                     -240  STRM_QUA_IBOE_DIESEL_10  -1
    HDT_QUA_IBOE_DIESEL_10    TSTRM_QUA_IBOE_DIESEL_10 1  HDTCAP_10                1
    BL_QUA_IBOE_DIESEL_DIESEL_P_10  STRM_QUA_IBOE_DIESEL_10  -1  PBAL_DIESEL_P_10         1
    BL_QUA_IBOE_DIESEL_DIESEL_P_10  QUAL_DIESEL_P_10         365
    BL_QUA_IBOE_DIESEL_FUELOIL_10  STRM_QUA_IBOE_DIESEL_10  -1  PBAL_FUELOIL_10          1
    BL_QUA_IBOE_DIESEL_FUELOIL_10  QUAL_FUELOIL_10          -34285
    TSLACK_QUA_IBOE_DIESEL_10  COST                     -180  TSTRM_QUA_IBOE_DIESEL_10 -1
    TBL_QUA_IBOE_DIESEL_DIESEL_P_10  TSTRM_QUA_IBOE_DIESEL_10 -1  PBAL_DIESEL_P_10         1
    TBL_QUA_IBOE_DIESEL_DIESEL_P_10  QUAL_DIESEL_P_10         -321.4
    TBL_QUA_IBOE_DIESEL_FUELOIL_10  TSTRM_QUA_IBOE_DIESEL_10 -1  PBAL_FUELOIL_10          1
    TBL_QUA_IBOE_DIESEL_FUELOIL_10  QUAL_FUELOIL_10          -34971.4
    SLACK_QUA_IBOE_VGO_10     COST                     -180  STRM_QUA_IBOE_VGO_10     -1
    HDT_QUA_IBOE_VGO_10       COST                     -240  STRM_QUA_IBOE_VGO_10     -1
    HDT_QUA_IBOE_VGO_10       TSTRM_QUA_IBOE_VGO_10    1  HDTCAP_10                1
    FCC_QUA_IBOE_10           COST                     -310  STRM_QUA_IBOE_VGO_10     -1
    FCC_QUA_IBOE_10           FSTRM_QUA_IBOE_NAPHTHA_10 0.55  FSTRM_QUA_IBOE_DIESEL_10 0.25
    FCC_QUA_IBOE_10           FCCCAP_10                1
    BL_QUA_IBOE_VGO_DIESEL_P_10  STRM_QUA_IBOE_VGO_10     -1  PBAL_DIESEL_P_10         1
    BL_QUA_IBOE_VGO_DIESEL_P_10  QUAL_DIESEL_P_10         1405
    BL_QUA_IBOE_VGO_FUELOIL_10  STRM_QUA_IBOE_VGO_10     -1  PBAL_FUELOIL_10          1
    BL_QUA_IBOE_VGO_FUELOIL_10  QUAL_FUELOIL_10          -33245
    TSLACK_QUA_IBOE_VGO_10    COST                     -180  TSTRM_QUA_IBOE_VGO_10    -1
    TBL_QUA_IBOE_VGO_DIESEL_P_10  TSTRM_QUA_IBOE_VGO_10    -1  PBAL_DIESEL_P_10         1
    TBL_QUA_IBOE_VGO_DIESEL_P_10  QUAL_DIESEL_P_10         -279.8
    TBL_QUA_IBOE_VGO_FUELOIL_10  TSTRM_QUA_IBOE_VGO_10    -1  PBAL_FUELOIL_10          1
    TBL_QUA_IBOE_VGO_FUELOIL_10  QUAL_FUELOIL_10          -34929.8
    SLACK_QUA_IBOE_RESIDUE_10  COST                     -180  STRM_QUA_IBOE_RESIDUE_10 -1
    HDT_QUA_IBOE_RESIDUE_10   COST                     -240  STRM_QUA_IBOE_RESIDUE_10 -1
    HDT_QUA_IBOE_RESIDUE_10   TSTRM_QUA_IBOE_RESIDUE_10 1  HDTCAP_10                1
    BL_QUA_IBOE_RESIDUE_FUELOIL_10  STRM_QUA_IBOE_RESIDUE_10 -1  PBAL_FUELOIL_10          1
    BL_QUA_IBOE_RESIDUE_FUELOIL_10  QUAL_FUELOIL_10          -31620
    TSLACK_QUA_IBOE_RESIDUE_10  COST                     -180  TSTRM_QUA_IBOE_RESIDUE_10 -1
    TBL_QUA_IBOE_RESIDUE_FUELOIL_10  TSTRM_QUA_IBOE_RESIDUE_10 -1  PBAL_FUELOIL_10          1
    TBL_QUA_IBOE_RESIDUE_FUELOIL_10  QUAL_FUELOIL_10          -34864.8
    FSLACK_QUA_IBOE_NAPHTHA_10  COST                     -180  FSTRM_QUA_IBOE_NAPHTHA_10 -1
    FBL_QUA_IBOE_NAPHTHA_GASOLINE_10  FSTRM_QUA_IBOE_NAPHTHA_10 -1  PBAL_GASOLINE_10         1
    FBL_QUA_IBOE_NAPHTHA_GASOLINE_10  QUAL_GASOLINE_10         -40.9
    FBL_QUA_IBOE_NAPHTHA_JET_10  FSTRM_QUA_IBOE_NAPHTHA_10 -1  PBAL_JET_10              1
    FBL_QUA_IBOE_NAPHTHA_JET_10  QUAL_JET_10              -2490.9
    FSLACK_QUA_IBOE_DIESEL_10  COST                     -180  FSTRM_QUA_IBOE_DIESEL_10 -1
    FBL_QUA_IBOE_DIESEL_DIESEL_P_10  FSTRM_QUA_IBOE_DIESEL_10 -1  PBAL_DIESEL_P_10         1
    FBL_QUA_IBOE_DIESEL_DIESEL_P_10  QUAL_DIESEL_P_10         -99.75
    FBL_QUA_IBOE_DIESEL_FUELOIL_10  FSTRM_QUA_IBOE_DIESEL_10 -1  PBAL_FUELOIL_10          1
    FBL_QUA_IBOE_DIESEL_FUELOIL_10  QUAL_FUELOIL_10          -34749.75
    SELL_GASOLINE_10          COST                     9250  PBAL_GASOLINE_10         -1
    SELL_JET_10               COST                     8900  PBAL_JET_10              -1
    SELL_DIESEL_P_10          COST                     8600  PBAL_DIESEL_P_10         -1
    SELL_FUELOIL_10           COST                     4900  PBAL_FUELOIL_10          -1
    BUY_BOMBAY_HIGH_11        COST                     -6850  CBAL_BOMBAY_HIGH_11      1
    INVC_BOMBAY_HIGH_11       COST                     -82.2  CBAL_BOMBAY_HIGH_11      -1
    INVC_BOMBAY_HIGH_11       CBAL_BOMBAY_HIGH_12      1
    CHG_BOMBAY_HIGH_11        COST                     -145  CBAL_BOMBAY_HIGH_11      -1
    CHG_BOMBAY_HIGH_11        CDUCAP_11                1  STRM_BOMBAY_HIGH_NAPHTHA_11 0.26
    CHG_BOMBAY_HIGH_11        STRM_BOMBAY_HIGH_KERO_11 0.18  STRM_BOMBAY_HIGH_DIESEL_11 0.24
    CHG_BOMBAY_HIGH_11        STRM_BOMBAY_HIGH_VGO_11  0.2  STRM_BOMBAY_HIGH_RESIDUE_11 0.12
    SLACK_BOMBAY_HIGH_NAPHTHA_11  COST                     -180  STRM_BOMBAY_HIGH_NAPHTHA_11 -1
    HDT_BOMBAY_HIGH_NAPHTHA_11  COST                     -240  STRM_BOMBAY_HIGH_NAPHTHA_11 -1
    HDT_BOMBAY_HIGH_NAPHTHA_11  TSTRM_BOMBAY_HIGH_NAPHTHA_11 1  HDTCAP_11                1
    BL_BOMBAY_HIGH_NAPHTHA_GASOLINE_11  STRM_BOMBAY_HIGH_NAPHTHA_11 -1  PBAL_GASOLINE_11         1
    BL_BOMBAY_HIGH_NAPHTHA_GASOLINE_11  QUAL_GASOLINE_11         -32
    BL_BOMBAY_HIGH_NAPHTHA_JET_11  STRM_BOMBAY_HIGH_NAPHTHA_11 -1  PBAL_JET_11              1
    BL_BOMBAY_HIGH_NAPHTHA_JET_11  QUAL_JET_11              -2482
    TSLACK_BOMBAY_HIGH_NAPHTHA_11  COST                     -180  TSTRM_BOMBAY_HIGH_NAPHTHA_11 -1
    TBL_BOMBAY_HIGH_NAPHTHA_GASOLINE_11  TSTRM_BOMBAY_HIGH_NAPHTHA_11 -1  PBAL_GASOLINE_11         1
    TBL_BOMBAY_HIGH_NAPHTHA_GASOLINE_11  QUAL_GASOLINE_11         -49.28
    TBL_BOMBAY_HIGH_NAPHTHA_JET_11  TSTRM_BOMBAY_HIGH_NAPHTHA_11 -1  PBAL_JET_11              1
    TBL_BOMBAY_HIGH_NAPHTHA_JET_11  QUAL_JET_11              -2499.28
    SLACK_BOMBAY_HIGH_KERO_11  COST                     -180  STRM_BOMBAY_HIGH_KERO_11 -1
    HDT_BOMBAY_HIGH_KERO_11   COST                     -240  STRM_BOMBAY_HIGH_KERO_11 -1
    HDT_BOMBAY_HIGH_KERO_11   TSTRM_BOMBAY_HIGH_KERO_11 1  HDTCAP_11                1
    BL_BOMBAY_HIGH_KERO_GASOLINE_11  STRM_BOMBAY_HIGH_KERO_11 -1  PBAL_GASOLINE_11         1
    BL_BOMBAY_HIGH_KERO_GASOLINE_11  QUAL_GASOLINE_11         85
    BL_BOMBAY_HIGH_KERO_JET_11  STRM_BOMBAY_HIGH_KERO_11 -1  PBAL_JET_11              1
    BL_BOMBAY_HIGH_KERO_JET_11  QUAL_JET_11              -2365
    BL_BOMBAY_HIGH_KERO_DIESEL_P_11  STRM_BOMBAY_HIGH_KERO_11 -1  PBAL_DIESEL_P_11         1
    BL_BOMBAY_HIGH_KERO_DIESEL_P_11  QUAL_DIESEL_P_11         -215
    TSLACK_BOMBAY_HIGH_KERO_11  COST                     -180  TSTRM_BOMBAY_HIGH_KERO_11 -1
    TBL_BOMBAY_HIGH_KERO_GASOLINE_11  TSTRM_BOMBAY_HIGH_KERO_11 -1  PBAL_GASOLINE_11         1
    TBL_BOMBAY_HIGH_KERO_GASOLINE_11  QUAL_GASOLINE_11         -44.6
    TBL_BOMBAY_HIGH_KERO_JET_11  TSTRM_BOMBAY_HIGH_KERO_11 -1  PBAL_JET_11              1
    TBL_BOMBAY_HIGH_KERO_JET_11  QUAL_JET_11              -2494.6
    TBL_BOMBAY_HIGH_KERO_DIESEL_P_11  TSTRM_BOMBAY_HIGH_KERO_11 -1  PBAL_DIESEL_P_11         1
    TBL_BOMBAY_HIGH_KERO_DIESEL_P_11  QUAL_DIESEL_P_11         -344.6
    SLACK_BOMBAY_HIGH_DIESEL_11  COST                     -180  STRM_BOMBAY_HIGH_DIESEL_11 -1
    HDT_BOMBAY_HIGH_DIESEL_11  COST                     -240  STRM_BOMBAY_HIGH_DIESEL_11 -1
    HDT_BOMBAY_HIGH_DIESEL_11  TSTRM_BOMBAY_HIGH_DIESEL_11 1  HDTCAP_11                1
    BL_BOMBAY_HIGH_DIESEL_DIESEL_P_11  STRM_BOMBAY_HIGH_DIESEL_11 -1  PBAL_DIESEL_P_11         1
    BL_BOMBAY_HIGH_DIESEL_DIESEL_P_11  QUAL_DIESEL_P_11         145
    BL_BOMBAY_HIGH_DIESEL_FUELOIL_11  STRM_BOMBAY_HIGH_DIESEL_11 -1  PBAL_FUELOIL_11          1
    BL_BOMBAY_HIGH_DIESEL_FUELOIL_11  QUAL_FUELOIL_11          -34505
    TSLACK_BOMBAY_HIGH_DIESEL_11  COST                     -180  TSTRM_BOMBAY_HIGH_DIESEL_11 -1
    TBL_BOMBAY_HIGH_DIESEL_DIESEL_P_11  TSTRM_BOMBAY_HIGH_DIESEL_11 -1  PBAL_DIESEL_P_11         1
    TBL_BOMBAY_HIGH_DIESEL_DIESEL_P_11  QUAL_DIESEL_P_11         -330.2
    TBL_BOMBAY_HIGH_DIESEL_FUELOIL_11  TSTRM_BOMBAY_HIGH_DIESEL_11 -1  PBAL_FUELOIL_11          1
    TBL_BOMBAY_HIGH_DIESEL_FUELOIL_11  QUAL_FUELOIL_11          -34980.2
    SLACK_BOMBAY_HIGH_VGO_11  COST                     -180  STRM_BOMBAY_HIGH_VGO_11  -1
    HDT_BOMBAY_HIGH_VGO_11    COST                     -240  STRM_BOMBAY_HIGH_VGO_11  -1
    HDT_BOMBAY_HIGH_VGO_11    TSTRM_BOMBAY_HIGH_VGO_11 1  HDTCAP_11                1
    FCC_BOMBAY_HIGH_11        COST                     -310  STRM_BOMBAY_HIGH_VGO_11  -1
    FCC_BOMBAY_HIGH_11        FSTRM_BOMBAY_HIGH_NAPHTHA_11 0.55  FSTRM_BOMBAY_HIGH_DIESEL_11 0.25
    FCC_BOMBAY_HIGH_11        FCCCAP_11                1
    BL_BOMBAY_HIGH_VGO_DIESEL_P_11  STRM_BOMBAY_HIGH_VGO_11  -1  PBAL_DIESEL_P_11         1
    BL_BOMBAY_HIGH_VGO_DIESEL_P_11  QUAL_DIESEL_P_11         865
    BL_BOMBAY_HIGH_VGO_FUELOIL_11  STRM_BOMBAY_HIGH_VGO_11  -1  PBAL_FUELOIL_11          1
    BL_BOMBAY_HIGH_VGO_FUELOIL_11  QUAL_FUELOIL_11          -33785
    TSLACK_BOMBAY_HIGH_VGO_11  COST                     -180  TSTRM_BOMBAY_HIGH_VGO_11 -1
    TBL_BOMBAY_HIGH_VGO_DIESEL_P_11  TSTRM_BOMBAY_HIGH_VGO_11 -1  PBAL_DIESEL_P_11         1
    TBL_BOMBAY_HIGH_VGO_DIESEL_P_11  QUAL_DIESEL_P_11         -301.4
    TBL_BOMBAY_HIGH_VGO_FUELOIL_11  TSTRM_BOMBAY_HIGH_VGO_11 -1  PBAL_FUELOIL_11          1
    TBL_BOMBAY_HIGH_VGO_FUELOIL_11  QUAL_FUELOIL_11          -34951.4
    SLACK_BOMBAY_HIGH_RESIDUE_11  COST                     -180  STRM_BOMBAY_HIGH_RESIDUE_11 -1
    HDT_BOMBAY_HIGH_RESIDUE_11  COST                     -240  STRM_BOMBAY_HIGH_RESIDUE_11 -1
    HDT_BOMBAY_HIGH_RESIDUE_11  TSTRM_BOMBAY_HIGH_RESIDUE_11 1  HDTCAP_11                1
    BL_BOMBAY_HIGH_RESIDUE_FUELOIL_11  STRM_BOMBAY_HIGH_RESIDUE_11 -1  PBAL_FUELOIL_11          1
    BL_BOMBAY_HIGH_RESIDUE_FUELOIL_11  QUAL_FUELOIL_11          -32660
    TSLACK_BOMBAY_HIGH_RESIDUE_11  COST                     -180  TSTRM_BOMBAY_HIGH_RESIDUE_11 -1
    TBL_BOMBAY_HIGH_RESIDUE_FUELOIL_11  TSTRM_BOMBAY_HIGH_RESIDUE_11 -1  PBAL_FUELOIL_11          1
    TBL_BOMBAY_HIGH_RESIDUE_FUELOIL_11  QUAL_FUELOIL_11          -34906.4
    FSLACK_BOMBAY_HIGH_NAPHTHA_11  COST                     -180  FSTRM_BOMBAY_HIGH_NAPHTHA_11 -1
    FBL_BOMBAY_HIGH_NAPHTHA_GASOLINE_11  FSTRM_BOMBAY_HIGH_NAPHTHA_11 -1  PBAL_GASOLINE_11         1
    FBL_BOMBAY_HIGH_NAPHTHA_GASOLINE_11  QUAL_GASOLINE_11         -43.7
    FBL_BOMBAY_HIGH_NAPHTHA_JET_11  FSTRM_BOMBAY_HIGH_NAPHTHA_11 -1  PBAL_JET_11              1
    FBL_BOMBAY_HIGH_NAPHTHA_JET_11  QUAL_JET_11              -2493.7
    FSLACK_BOMBAY_HIGH_DIESEL_11  COST                     -180  FSTRM_BOMBAY_HIGH_DIESEL_11 -1
    FBL_BOMBAY_HIGH_DIESEL_DIESEL_P_11  FSTRM_BOMBAY_HIGH_DIESEL_11 -1  PBAL_DIESEL_P_11         1
    FBL_BOMBAY_HIGH_DIESEL_DIESEL_P_11  QUAL_DIESEL_P_11         -176.75
    FBL_BOMBAY_HIGH_DIESEL_FUELOIL_11  FSTRM_BOMBAY_HIGH_DIESEL_11 -1  PBAL_FUELOIL_11          1
    FBL_BOMBAY_HIGH_DIESEL_FUELOIL_11  QUAL_FUELOIL_11          -34826.75
    BUY_ARAB_LIGHT_11         COST                     -6420  CBAL_ARAB_LIGHT_11       1
    INVC_ARAB_LIGHT_11        COST                     -77.04  CBAL_ARAB_LIGHT_11       -1
    INVC_ARAB_LIGHT_11        CBAL_ARAB_LIGHT_12       1
    CHG_ARAB_LIGHT_11         COST                     -145  CBAL_ARAB_LIGHT_11       -1
    CHG_ARAB_LIGHT_11         CDUCAP_11                1  STRM_ARAB_LIGHT_NAPHTHA_11 0.22
    CHG_ARAB_LIGHT_11         STRM_ARAB_LIGHT_KERO_11  0.17  STRM_ARAB_LIGHT_DIESEL_11 0.23
    CHG_ARAB_LIGHT_11         STRM_ARAB_LIGHT_VGO_11   0.22  STRM_ARAB_LIGHT_RESIDUE_11 0.16
    SLACK_ARAB_LIGHT_NAPHTHA_11  COST                     -180  STRM_ARAB_LIGHT_NAPHTHA_11 -1
    HDT_ARAB_LIGHT_NAPHTHA_11  COST                     -240  STRM_ARAB_LIGHT_NAPHTHA_11 -1
    HDT_ARAB_LIGHT_NAPHTHA_11  TSTRM_ARAB_LIGHT_NAPHTHA_11 1  HDTCAP_11                1
    BL_ARAB_LIGHT_NAPHTHA_GASOLINE_11  STRM_ARAB_LIGHT_NAPHTHA_11 -1  PBAL_GASOLINE_11         1
    BL_ARAB_LIGHT_NAPHTHA_GASOLINE_11  QUAL_GASOLINE_11         330
    BL_ARAB_LIGHT_NAPHTHA_JET_11  STRM_ARAB_LIGHT_NAPHTHA_11 -1  PBAL_JET_11              1
    BL_ARAB_LIGHT_NAPHTHA_JET_11  QUAL_JET_11              -2120
    TSLACK_ARAB_LIGHT_NAPHTHA_11  COST                     -180  TSTRM_ARAB_LIGHT_NAPHTHA_11 -1
    TBL_ARAB_LIGHT_NAPHTHA_GASOLINE_11  TSTRM_ARAB_LIGHT_NAPHTHA_11 -1  PBAL_GASOLINE_11         1
    TBL_ARAB_LIGHT_NAPHTHA_GASOLINE_11  QUAL_GASOLINE_11         -34.8
    TBL_ARAB_LIGHT_NAPHTHA_JET_11  TSTRM_ARAB_LIGHT_NAPHTHA_11 -1  PBAL_JET_11              1
    TBL_ARAB_LIGHT_NAPHTHA_JET_11  QUAL_JET_11              -2484.8
    SLACK_ARAB_LIGHT_KERO_11  COST                     -180  STRM_ARAB_LIGHT_KERO_11  -1
    HDT_ARAB_LIGHT_KERO_11    COST                     -240  STRM_ARAB_LIGHT_KERO_11  -1
    HDT_ARAB_LIGHT_KERO_11    TSTRM_ARAB_LIGHT_KERO_11 1  HDTCAP_11                1
    BL_ARAB_LIGHT_KERO_GASOLINE_11  STRM_ARAB_LIGHT_KERO_11  -1  PBAL_GASOLINE_11         1
    BL_ARAB_LIGHT_KERO_GASOLINE_11  QUAL_GASOLINE_11         2800
    BL_ARAB_LIGHT_KERO_JET_11  STRM_ARAB_LIGHT_KERO_11  -1  PBAL_JET_11              1
    BL_ARAB_LIGHT_KERO_JET_11  QUAL_JET_11              350
    BL_ARAB_LIGHT_KERO_DIESEL_P_11  STRM_ARAB_LIGHT_KERO_11  -1  PBAL_DIESEL_P_11         1
    BL_ARAB_LIGHT_KERO_DIESEL_P_11  QUAL_DIESEL_P_11         2500
    TSLACK_ARAB_LIGHT_KERO_11  COST                     -180  TSTRM_ARAB_LIGHT_KERO_11 -1
    TBL_ARAB_LIGHT_KERO_GASOLINE_11  TSTRM_ARAB_LIGHT_KERO_11 -1  PBAL_GASOLINE_11         1
    TBL_ARAB_LIGHT_KERO_GASOLINE_11  QUAL_GASOLINE_11         64
    TBL_ARAB_LIGHT_KERO_JET_11  TSTRM_ARAB_LIGHT_KERO_11 -1  PBAL_JET_11              1
    TBL_ARAB_LIGHT_KERO_JET_11  QUAL_JET_11              -2386
    TBL_ARAB_LIGHT_KERO_DIESEL_P_11  TSTRM_ARAB_LIGHT_KERO_11 -1  PBAL_DIESEL_P_11         1
    TBL_ARAB_LIGHT_KERO_DIESEL_P_11  QUAL_DIESEL_P_11         -236
    SLACK_ARAB_LIGHT_DIESEL_11  COST                     -180  STRM_ARAB_LIGHT_DIESEL_11 -1
    HDT_ARAB_LIGHT_DIESEL_11  COST                     -240  STRM_ARAB_LIGHT_DIESEL_11 -1
    HDT_ARAB_LIGHT_DIESEL_11  TSTRM_ARAB_LIGHT_DIESEL_11 1  HDTCAP_11                1
    BL_ARAB_LIGHT_DIESEL_DIESEL_P_11  STRM_ARAB_LIGHT_DIESEL_11 -1  PBAL_DIESEL_P_11         1
    BL_ARAB_LIGHT_DIESEL_DIESEL_P_11  QUAL_DIESEL_P_11         10100
    BL_ARAB_LIGHT_DIESEL_FUELOIL_11  STRM_ARAB_LIGHT_DIESEL_11 -1  PBAL_FUELOIL_11          1
    BL_ARAB_LIGHT_DIESEL_FUELOIL_11  QUAL_FUELOIL_11          -24550
    TSLACK_ARAB_LIGHT_DIESEL_11  COST                     -180  TSTRM_ARAB_LIGHT_DIESEL_11 -1
    TBL_ARAB_LIGHT_DIESEL_DIESEL_P_11  TSTRM_ARAB_LIGHT_DIESEL_11 -1  PBAL_DIESEL_P_11         1
    TBL_ARAB_LIGHT_DIESEL_DIESEL_P_11  QUAL_DIESEL_P_11         68
    TBL_ARAB_LIGHT_DIESEL_FUELOIL_11  TSTRM_ARAB_LIGHT_DIESEL_11 -1  PBAL_FUELOIL_11          1
    TBL_ARAB_LIGHT_DIESEL_FUELOIL_11  QUAL_FUELOIL_11          -34582
    SLACK_ARAB_LIGHT_VGO_11   COST                     -180  STRM_ARAB_LIGHT_VGO_11   -1
    HDT_ARAB_LIGHT_VGO_11     COST                     -240  STRM_ARAB_LIGHT_VGO_11   -1
    HDT_ARAB_LIGHT_VGO_11     TSTRM_ARAB_LIGHT_VGO_11  1  HDTCAP_11                1
    FCC_ARAB_LIGHT_11         COST                     -310  STRM_ARAB_LIGHT_VGO_11   -1
    FCC_ARAB_LIGHT_11         FSTRM_ARAB_LIGHT_NAPHTHA_11 0.55  FSTRM_ARAB_LIGHT_DIESEL_11 0.25
    FCC_ARAB_LIGHT_11         FCCCAP_11                1
    BL_ARAB_LIGHT_VGO_DIESEL_P_11  STRM_ARAB_LIGHT_VGO_11   -1  PBAL_DIESEL_P_11         1
    BL_ARAB_LIGHT_VGO_DIESEL_P_11  QUAL_DIESEL_P_11         25300
    BL_ARAB_LIGHT_VGO_FUELOIL_11  STRM_ARAB_LIGHT_VGO_11   -1  PBAL_FUELOIL_11          1
    BL_ARAB_LIGHT_VGO_FUELOIL_11  QUAL_FUELOIL_11          -9350
    TSLACK_ARAB_LIGHT_VGO_11  COST                     -180  TSTRM_ARAB_LIGHT_VGO_11  -1
    TBL_ARAB_LIGHT_VGO_DIESEL_P_11  TSTRM_ARAB_LIGHT_VGO_11  -1  PBAL_DIESEL_P_11         1
    TBL_ARAB_LIGHT_VGO_DIESEL_P_11  QUAL_DIESEL_P_11         676
    TBL_ARAB_LIGHT_VGO_FUELOIL_11  TSTRM_ARAB_LIGHT_VGO_11  -1  PBAL_FUELOIL_11          1
    TBL_ARAB_LIGHT_VGO_FUELOIL_11  QUAL_FUELOIL_11          -33974
    SLACK_ARAB_LIGHT_RESIDUE_11  COST                     -180  STRM_ARAB_LIGHT_RESIDUE_11 -1
    HDT_ARAB_LIGHT_RESIDUE_11  COST                     -240  STRM_ARAB_LIGHT_RESIDUE_11 -1
    HDT_ARAB_LIGHT_RESIDUE_11  TSTRM_ARAB_LIGHT_RESIDUE_11 1  HDTCAP_11                1
    BL_ARAB_LIGHT_RESIDUE_FUELOIL_11  STRM_ARAB_LIGHT_RESIDUE_11 -1  PBAL_FUELOIL_11          1
    BL_ARAB_LIGHT_RESIDUE_FUELOIL_11  QUAL_FUELOIL_11          14400
    TSLACK_ARAB_LIGHT_RESIDUE_11  COST                     -180  TSTRM_ARAB_LIGHT_RESIDUE_11 -1
    TBL_ARAB_LIGHT_RESIDUE_FUELOIL_11  TSTRM_ARAB_LIGHT_RESIDUE_11 -1  PBAL_FUELOIL_11          1
    TBL_ARAB_LIGHT_RESIDUE_FUELOIL_11  QUAL_FUELOIL_11          -33024
    FSLACK_ARAB_LIGHT_NAPHTHA_11  COST                     -180  FSTRM_ARAB_LIGHT_NAPHTHA_11 -1
    FBL_ARAB_LIGHT_NAPHTHA_GASOLINE_11  FSTRM_ARAB_LIGHT_NAPHTHA_11 -1  PBAL_GASOLINE_11         1
    FBL_ARAB_LIGHT_NAPHTHA_GASOLINE_11  QUAL_GASOLINE_11         83
    FBL_ARAB_LIGHT_NAPHTHA_JET_11  FSTRM_ARAB_LIGHT_NAPHTHA_11 -1  PBAL_JET_11              1
    FBL_ARAB_LIGHT_NAPHTHA_JET_11  QUAL_JET_11              -2367
    FSLACK_ARAB_LIGHT_DIESEL_11  COST                     -180  FSTRM_ARAB_LIGHT_DIESEL_11 -1
    FBL_ARAB_LIGHT_DIESEL_DIESEL_P_11  FSTRM_ARAB_LIGHT_DIESEL_11 -1  PBAL_DIESEL_P_11         1
    FBL_ARAB_LIGHT_DIESEL_DIESEL_P_11  QUAL_DIESEL_P_11         3307.5
    FBL_ARAB_LIGHT_DIESEL_FUELOIL_11  FSTRM_ARAB_LIGHT_DIESEL_11 -1  PBAL_FUELOIL_11          1
    FBL_ARAB_LIGHT_DIESEL_FUELOIL_11  QUAL_FUELOIL_11          -31342.5
    BUY_ARAB_HEAVY_11         COST                     -5980  CBAL_ARAB_HEAVY_11       1
    INVC_ARAB_HEAVY_11        COST                     -71.76  CBAL_ARAB_HEAVY_11       -1
    INVC_ARAB_HEAVY_11        CBAL_ARAB_HEAVY_12       1
    CHG_ARAB_HEAVY_11         COST                     -145  CBAL_ARAB_HEAVY_11       -1
    CHG_ARAB_HEAVY_11         CDUCAP_11                1  STRM_ARAB_HEAVY_NAPHTHA_11 0.16
    CHG_ARAB_HEAVY_11         STRM_ARAB_HEAVY_KERO_11  0.14  STRM_ARAB_HEAVY_DIESEL_11 0.21
    CHG_ARAB_HEAVY_11         STRM_ARAB_HEAVY_VGO_11   0.25  STRM_ARAB_HEAVY_RESIDUE_11 0.24
    SLACK_ARAB_HEAVY_NAPHTHA_11  COST                     -180  STRM_ARAB_HEAVY_NAPHTHA_11 -1
    HDT_ARAB_HEAVY_NAPHTHA_11  COST                     -240  STRM_ARAB_HEAVY_NAPHTHA_11 -1
    HDT_ARAB_HEAVY_NAPHTHA_11  TSTRM_ARAB_HEAVY_NAPHTHA_11 1  HDTCAP_11                1
    BL_ARAB_HEAVY_NAPHTHA_GASOLINE_11  STRM_ARAB_HEAVY_NAPHTHA_11 -1  PBAL_GASOLINE_11         1
    BL_ARAB_HEAVY_NAPHTHA_GASOLINE_11  QUAL_GASOLINE_11         530
    BL_ARAB_HEAVY_NAPHTHA_JET_11  STRM_ARAB_HEAVY_NAPHTHA_11 -1  PBAL_JET_11              1
    BL_ARAB_HEAVY_NAPHTHA_JET_11  QUAL_JET_11              -1920
    TSLACK_ARAB_HEAVY_NAPHTHA_11  COST                     -180  TSTRM_ARAB_HEAVY_NAPHTHA_11 -1
    TBL_ARAB_HEAVY_NAPHTHA_GASOLINE_11  TSTRM_ARAB_HEAVY_NAPHTHA_11 -1  PBAL_GASOLINE_11         1
    TBL_ARAB_HEAVY_NAPHTHA_GASOLINE_11  QUAL_GASOLINE_11         -26.8
    TBL_ARAB_HEAVY_NAPHTHA_JET_11  TSTRM_ARAB_HEAVY_NAPHTHA_11 -1  PBAL_JET_11              1
    TBL_ARAB_HEAVY_NAPHTHA_JET_11  QUAL_JET_11              -2476.8
    SLACK_ARAB_HEAVY_KERO_11  COST                     -180  STRM_ARAB_HEAVY_KERO_11  -1
    HDT_ARAB_HEAVY_KERO_11    COST                     -240  STRM_ARAB_HEAVY_KERO_11  -1
    HDT_ARAB_HEAVY_KERO_11    TSTRM_ARAB_HEAVY_KERO_11 1  HDTCAP_11                1
    BL_ARAB_HEAVY_KERO_GASOLINE_11  STRM_ARAB_HEAVY_KERO_11  -1  PBAL_GASOLINE_11         1
    BL_ARAB_HEAVY_KERO_GASOLINE_11  QUAL_GASOLINE_11         4300
    BL_ARAB_HEAVY_KERO_JET_11  STRM_ARAB_HEAVY_KERO_11  -1  PBAL_JET_11              1
    BL_ARAB_HEAVY_KERO_JET_11  QUAL_JET_11              1850
    BL_ARAB_HEAVY_KERO_DIESEL_P_11  STRM_ARAB_HEAVY_KERO_11  -1  PBAL_DIESEL_P_11         1
    BL_ARAB_HEAVY_KERO_DIESEL_P_11  QUAL_DIESEL_P_11         4000
    TSLACK_ARAB_HEAVY_KERO_11  COST                     -180  TSTRM_ARAB_HEAVY_KERO_11 -1
    TBL_ARAB_HEAVY_KERO_GASOLINE_11  TSTRM_ARAB_HEAVY_KERO_11 -1  PBAL_GASOLINE_11         1
    TBL_ARAB_HEAVY_KERO_GASOLINE_11  QUAL_GASOLINE_11         124
    TBL_ARAB_HEAVY_KERO_JET_11  TSTRM_ARAB_HEAVY_KERO_11 -1  PBAL_JET_11              1
    TBL_ARAB_HEAVY_KERO_JET_11  QUAL_JET_11              -2326
    TBL_ARAB_HEAVY_KERO_DIESEL_P_11  TSTRM_ARAB_HEAVY_KERO_11 -1  PBAL_DIESEL_P_11         1
    TBL_ARAB_HEAVY_KERO_DIESEL_P_11  QUAL_DIESEL_P_11         -176
    SLACK_ARAB_HEAVY_DIESEL_11  COST                     -180  STRM_ARAB_HEAVY_DIESEL_11 -1
    HDT_ARAB_HEAVY_DIESEL_11  COST                     -240  STRM_ARAB_HEAVY_DIESEL_11 -1
    HDT_ARAB_HEAVY_DIESEL_11  TSTRM_ARAB_HEAVY_DIESEL_11 1  HDTCAP_11                1
    BL_ARAB_HEAVY_DIESEL_DIESEL_P_11  STRM_ARAB_HEAVY_DIESEL_11 -1  PBAL_DIESEL_P_11         1
    BL_ARAB_HEAVY_DIESEL_DIESEL_P_11  QUAL_DIESEL_P_11         15600
    BL_ARAB_HEAVY_DIESEL_FUELOIL_11  STRM_ARAB_HEAVY_DIESEL_11 -1  PBAL_FUELOIL_11          1
    BL_ARAB_HEAVY_DIESEL_FUELOIL_11  QUAL_FUELOIL_11          -19050
    TSLACK_ARAB_HEAVY_DIESEL_11  COST                     -180  TSTRM_ARAB_HEAVY_DIESEL_11 -1
    TBL_ARAB_HEAVY_DIESEL_DIESEL_P_11  TSTRM_ARAB_HEAVY_DIESEL_11 -1  PBAL_DIESEL_P_11         1
    TBL_ARAB_HEAVY_DIESEL_DIESEL_P_11  QUAL_DIESEL_P_11         288
    TBL_ARAB_HEAVY_DIESEL_FUELOIL_11  TSTRM_ARAB_HEAVY_DIESEL_11 -1  PBAL_FUELOIL_11          1
    TBL_ARAB_HEAVY_DIESEL_FUELOIL_11  QUAL_FUELOIL_11          -34362
    SLACK_ARAB_HEAVY_VGO_11   COST                     -180  STRM_ARAB_HEAVY_VGO_11   -1
    HDT_ARAB_HEAVY_VGO_11     COST                     -240  STRM_ARAB_HEAVY_VGO_11   -1
    HDT_ARAB_HEAVY_VGO_11     TSTRM_ARAB_HEAVY_VGO_11  1  HDTCAP_11                1
    FCC_ARAB_HEAVY_11         COST                     -310  STRM_ARAB_HEAVY_VGO_11   -1
    FCC_ARAB_HEAVY_11         FSTRM_ARAB_HEAVY_NAPHTHA_11 0.55  FSTRM_ARAB_HEAVY_DIESEL_11 0.25
    FCC_ARAB_HEAVY_11         FCCCAP_11                1
    BL_ARAB_HEAVY_VGO_DIESEL_P_11  STRM_ARAB_HEAVY_VGO_11   -1  PBAL_DIESEL_P_11         1
    BL_ARAB_HEAVY_VGO_DIESEL_P_11  QUAL_DIESEL_P_11         38800
    BL_ARAB_HEAVY_VGO_FUELOIL_11  STRM_ARAB_HEAVY_VGO_11   -1  PBAL_FUELOIL_11          1
    BL_ARAB_HEAVY_VGO_FUELOIL_11  QUAL_FUELOIL_11          4150
    TSLACK_ARAB_HEAVY_VGO_11  COST                     -180  TSTRM_ARAB_HEAVY_VGO_11  -1
    TBL_ARAB_HEAVY_VGO_DIESEL_P_11  TSTRM_ARAB_HEAVY_VGO_11  -1  PBAL_DIESEL_P_11         1
    TBL_ARAB_HEAVY_VGO_DIESEL_P_11  QUAL_DIESEL_P_11         1216
    TBL_ARAB_HEAVY_VGO_FUELOIL_11  TSTRM_ARAB_HEAVY_VGO_11  -1  PBAL_FUELOIL_11          1
    TBL_ARAB_HEAVY_VGO_FUELOIL_11  QUAL_FUELOIL_11          -33434
    SLACK_ARAB_HEAVY_RESIDUE_11  COST                     -180  STRM_ARAB_HEAVY_RESIDUE_11 -1
    HDT_ARAB_HEAVY_RESIDUE_11  COST                     -240  STRM_ARAB_HEAVY_RESIDUE_11 -1
    HDT_ARAB_HEAVY_RESIDUE_11  TSTRM_ARAB_HEAVY_RESIDUE_11 1  HDTCAP_11                1
    BL_ARAB_HEAVY_RESIDUE_FUELOIL_11  STRM_ARAB_HEAVY_RESIDUE_11 -1  PBAL_FUELOIL_11          1
    BL_ARAB_HEAVY_RESIDUE_FUELOIL_11  QUAL_FUELOIL_11          40400
    TSLACK_ARAB_HEAVY_RESIDUE_11  COST                     -180  TSTRM_ARAB_HEAVY_RESIDUE_11 -1
    TBL_ARAB_HEAVY_RESIDUE_FUELOIL_11  TSTRM_ARAB_HEAVY_RESIDUE_11 -1  PBAL_FUELOIL_11          1
    TBL_ARAB_HEAVY_RESIDUE_FUELOIL_11  QUAL_FUELOIL_11          -31984
    FSLACK_ARAB_HEAVY_NAPHTHA_11  COST                     -180  FSTRM_ARAB_HEAVY_NAPHTHA_11 -1
    FBL_ARAB_HEAVY_NAPHTHA_GASOLINE_11  FSTRM_ARAB_HEAVY_NAPHTHA_11 -1  PBAL_GASOLINE_11         1
    FBL_ARAB_HEAVY_NAPHTHA_GASOLINE_11  QUAL_GASOLINE_11         153
    FBL_ARAB_HEAVY_NAPHTHA_JET_11  FSTRM_ARAB_HEAVY_NAPHTHA_11 -1  PBAL_JET_11              1
    FBL_ARAB_HEAVY_NAPHTHA_JET_11  QUAL_JET_11              -2297
    FSLACK_ARAB_HEAVY_DIESEL_11  COST                     -180  FSTRM_ARAB_HEAVY_DIESEL_11 -1
    FBL_ARAB_HEAVY_DIESEL_DIESEL_P_11  FSTRM_ARAB_HEAVY_DIESEL_11 -1  PBAL_DIESEL_P_11         1
    FBL_ARAB_HEAVY_DIESEL_DIESEL_P_11  QUAL_DIESEL_P_11         5232.5
    FBL_ARAB_HEAVY_DIESEL_FUELOIL_11  FSTRM_ARAB_HEAVY_DIESEL_11 -1  PBAL_FUELOIL_11          1
    FBL_ARAB_HEAVY_DIESEL_FUELOIL_11  QUAL_FUELOIL_11          -29417.5
    BUY_BASRAH_11             COST                     -6100  CBAL_BASRAH_11           1
    INVC_BASRAH_11            COST                     -73.2  CBAL_BASRAH_11           -1
    INVC_BASRAH_11            CBAL_BASRAH_12           1
    CHG_BASRAH_11             COST                     -145  CBAL_BASRAH_11           -1
    CHG_BASRAH_11             CDUCAP_11                1  STRM_BASRAH_NAPHTHA_11   0.18
    CHG_BASRAH_11             STRM_BASRAH_KERO_11      0.15  STRM_BASRAH_DIESEL_11    0.22
    CHG_BASRAH_11             STRM_BASRAH_VGO_11       0.24  STRM_BASRAH_RESIDUE_11   0.21
    SLACK_BASRAH_NAPHTHA_11   COST                     -180  STRM_BASRAH_NAPHTHA_11   -1
    HDT_BASRAH_NAPHTHA_11     COST                     -240  STRM_BASRAH_NAPHTHA_11   -1
    HDT_BASRAH_NAPHTHA_11     TSTRM_BASRAH_NAPHTHA_11  1  HDTCAP_11                1
    BL_BASRAH_NAPHTHA_GASOLINE_11  STRM_BASRAH_NAPHTHA_11   -1  PBAL_GASOLINE_11         1
    BL_BASRAH_NAPHTHA_GASOLINE_11  QUAL_GASOLINE_11         440
    BL_BASRAH_NAPHTHA_JET_11  STRM_BASRAH_NAPHTHA_11   -1  PBAL_JET_11              1
    BL_BASRAH_NAPHTHA_JET_11  QUAL_JET_11              -2010
    TSLACK_BASRAH_NAPHTHA_11  COST                     -180  TSTRM_BASRAH_NAPHTHA_11  -1
    TBL_BASRAH_NAPHTHA_GASOLINE_11  TSTRM_BASRAH_NAPHTHA_11  -1  PBAL_GASOLINE_11         1
    TBL_BASRAH_NAPHTHA_GASOLINE_11  QUAL_GASOLINE_11         -30.4
    TBL_BASRAH_NAPHTHA_JET_11  TSTRM_BASRAH_NAPHTHA_11  -1  PBAL_JET_11              1
    TBL_BASRAH_NAPHTHA_JET_11  QUAL_JET_11              -2480.4
    SLACK_BASRAH_KERO_11      COST                     -180  STRM_BASRAH_KERO_11      -1
    HDT_BASRAH_KERO_11        COST                     -240  STRM_BASRAH_KERO_11      -1
    HDT_BASRAH_KERO_11        TSTRM_BASRAH_KERO_11     1  HDTCAP_11                1
    BL_BASRAH_KERO_GASOLINE_11  STRM_BASRAH_KERO_11      -1  PBAL_GASOLINE_11         1
    BL_BASRAH_KERO_GASOLINE_11  QUAL_GASOLINE_11         3625
    BL_BASRAH_KERO_JET_11     STRM_BASRAH_KERO_11      -1  PBAL_JET_11              1
    BL_BASRAH_KERO_JET_11     QUAL_JET_11              1175
    BL_BASRAH_KERO_DIESEL_P_11  STRM_BASRAH_KERO_11      -1  PBAL_DIESEL_P_11         1
    BL_BASRAH_KERO_DIESEL_P_11  QUAL_DIESEL_P_11         3325
    TSLACK_BASRAH_KERO_11     COST                     -180  TSTRM_BASRAH_KERO_11     -1
    TBL_BASRAH_KERO_GASOLINE_11  TSTRM_BASRAH_KERO_11     -1  PBAL_GASOLINE_11         1
    TBL_BASRAH_KERO_GASOLINE_11  QUAL_GASOLINE_11         97
    TBL_BASRAH_KERO_JET_11    TSTRM_BASRAH_KERO_11     -1  PBAL_JET_11              1
    TBL_BASRAH_KERO_JET_11    QUAL_JET_11              -2353
    TBL_BASRAH_KERO_DIESEL_P_11  TSTRM_BASRAH_KERO_11     -1  PBAL_DIESEL_P_11         1
    TBL_BASRAH_KERO_DIESEL_P_11  QUAL_DIESEL_P_11         -203
    SLACK_BASRAH_DIESEL_11    COST                     -180  STRM_BASRAH_DIESEL_11    -1
    HDT_BASRAH_DIESEL_11      COST                     -240  STRM_BASRAH_DIESEL_11    -1
    HDT_BASRAH_DIESEL_11      TSTRM_BASRAH_DIESEL_11   1  HDTCAP_11                1
    BL_BASRAH_DIESEL_DIESEL_P_11  STRM_BASRAH_DIESEL_11    -1  PBAL_DIESEL_P_11         1
    BL_BASRAH_DIESEL_DIESEL_P_11  QUAL_DIESEL_P_11         13125
    BL_BASRAH_DIESEL_FUELOIL_11  STRM_BASRAH_DIESEL_11    -1  PBAL_FUELOIL_11          1
    BL_BASRAH_DIESEL_FUELOIL_11  QUAL_FUELOIL_11          -21525
    TSLACK_BASRAH_DIESEL_11   COST                     -180  TSTRM_BASRAH_DIESEL_11   -1
    TBL_BASRAH_DIESEL_DIESEL_P_11  TSTRM_BASRAH_DIESEL_11   -1  PBAL_DIESEL_P_11         1
    TBL_BASRAH_DIESEL_DIESEL_P_11  QUAL_DIESEL_P_11         189
    TBL_BASRAH_DIESEL_FUELOIL_11  TSTRM_BASRAH_DIESEL_11   -1  PBAL_FUELOIL_11          1
    TBL_BASRAH_DIESEL_FUELOIL_11  QUAL_FUELOIL_11          -34461
    SLACK_BASRAH_VGO_11       COST                     -180  STRM_BASRAH_VGO_11       -1
    HDT_BASRAH_VGO_11         COST                     -240  STRM_BASRAH_VGO_11       -1
    HDT_BASRAH_VGO_11         TSTRM_BASRAH_VGO_11      1  HDTCAP_11                1
    FCC_BASRAH_11             COST                     -310  STRM_BASRAH_VGO_11       -1
    FCC_BASRAH_11             FSTRM_BASRAH_NAPHTHA_11  0.55  FSTRM_BASRAH_DIESEL_11   0.25
    FCC_BASRAH_11             FCCCAP_11                1
    BL_BASRAH_VGO_DIESEL_P_11  STRM_BASRAH_VGO_11       -1  PBAL_DIESEL_P_11         1
    BL_BASRAH_VGO_DIESEL_P_11  QUAL_DIESEL_P_11         32725
    BL_BASRAH_VGO_FUELOIL_11  STRM_BASRAH_VGO_11       -1  PBAL_FUELOIL_11          1
    BL_BASRAH_VGO_FUELOIL_11  QUAL_FUELOIL_11          -1925
    TSLACK_BASRAH_VGO_11      COST                     -180  TSTRM_BASRAH_VGO_11      -1
    TBL_BASRAH_VGO_DIESEL_P_11  TSTRM_BASRAH_VGO_11      -1  PBAL_DIESEL_P_11         1
    TBL_BASRAH_VGO_DIESEL_P_11  QUAL_DIESEL_P_11         973
    TBL_BASRAH_VGO_FUELOIL_11  TSTRM_BASRAH_VGO_11      -1  PBAL_FUELOIL_11          1
    TBL_BASRAH_VGO_FUELOIL_11  QUAL_FUELOIL_11          -33677
    SLACK_BASRAH_RESIDUE_11   COST                     -180  STRM_BASRAH_RESIDUE_11   -1
    HDT_BASRAH_RESIDUE_11     COST                     -240  STRM_BASRAH_RESIDUE_11   -1
    HDT_BASRAH_RESIDUE_11     TSTRM_BASRAH_RESIDUE_11  1  HDTCAP_11                1
    BL_BASRAH_RESIDUE_FUELOIL_11  STRM_BASRAH_RESIDUE_11   -1  PBAL_FUELOIL_11          1
    BL_BASRAH_RESIDUE_FUELOIL_11  QUAL_FUELOIL_11          28700
    TSLACK_BASRAH_RESIDUE_11  COST                     -180  TSTRM_BASRAH_RESIDUE_11  -1
    TBL_BASRAH_RESIDUE_FUELOIL_11  TSTRM_BASRAH_RESIDUE_11  -1  PBAL_FUELOIL_11          1
    TBL_BASRAH_RESIDUE_FUELOIL_11  QUAL_FUELOIL_11          -32452
    FSLACK_BASRAH_NAPHTHA_11  COST                     -180  FSTRM_BASRAH_NAPHTHA_11  -1
    FBL_BASRAH_NAPHTHA_GASOLINE_11  FSTRM_BASRAH_NAPHTHA_11  -1  PBAL_GASOLINE_11         1
    FBL_BASRAH_NAPHTHA_GASOLINE_11  QUAL_GASOLINE_11         121.5
    FBL_BASRAH_NAPHTHA_JET_11  FSTRM_BASRAH_NAPHTHA_11  -1  PBAL_JET_11              1
    FBL_BASRAH_NAPHTHA_JET_11  QUAL_JET_11              -2328.5
    FSLACK_BASRAH_DIESEL_11   COST                     -180  FSTRM_BASRAH_DIESEL_11   -1
    FBL_BASRAH_DIESEL_DIESEL_P_11  FSTRM_BASRAH_DIESEL_11   -1  PBAL_DIESEL_P_11         1
    FBL_BASRAH_DIESEL_DIESEL_P_11  QUAL_DIESEL_P_11         4366.25
    FBL_BASRAH_DIESEL_FUELOIL_11  FSTRM_BASRAH_DIESEL_11   -1  PBAL_FUELOIL_11          1
    FBL_BASRAH_DIESEL_FUELOIL_11  QUAL_FUELOIL_11          -30283.75
    BUY_URALS_11              COST                     -6260  CBAL_URALS_11            1
    INVC_URALS_11             COST                     -75.12  CBAL_URALS_11            -1
    INVC_URALS_11             CBAL_URALS_12            1
    CHG_URALS_11              COST                     -145  CBAL_URALS_11            -1
    CHG_URALS_11              CDUCAP_11                1  STRM_URALS_NAPHTHA_11    0.2
    CHG_URALS_11              STRM_URALS_KERO_11       0.16  STRM_URALS_DIESEL_11     0.24
    CHG_URALS_11              STRM_URALS_VGO_11        0.23  STRM_URALS_RESIDUE_11    0.17
    SLACK_URALS_NAPHTHA_11    COST                     -180  STRM_URALS_NAPHTHA_11    -1
    HDT_URALS_NAPHTHA_11      COST                     -240  STRM_URALS_NAPHTHA_11    -1
    HDT_URALS_NAPHTHA_11      TSTRM_URALS_NAPHTHA_11   1  HDTCAP_11                1
    BL_URALS_NAPHTHA_GASOLINE_11  STRM_URALS_NAPHTHA_11    -1  PBAL_GASOLINE_11         1
    BL_URALS_NAPHTHA_GASOLINE_11  QUAL_GASOLINE_11         226
    BL_URALS_NAPHTHA_JET_11   STRM_URALS_NAPHTHA_11    -1  PBAL_JET_11              1
    BL_URALS_NAPHTHA_JET_11   QUAL_JET_11              -2224
    TSLACK_URALS_NAPHTHA_11   COST                     -180  TSTRM_URALS_NAPHTHA_11   -1
    TBL_URALS_NAPHTHA_GASOLINE_11  TSTRM_URALS_NAPHTHA_11   -1  PBAL_GASOLINE_11         1
    TBL_URALS_NAPHTHA_GASOLINE_11  QUAL_GASOLINE_11         -38.96
    TBL_URALS_NAPHTHA_JET_11  TSTRM_URALS_NAPHTHA_11   -1  PBAL_JET_11              1
    TBL_URALS_NAPHTHA_JET_11  QUAL_JET_11              -2488.96
    SLACK_URALS_KERO_11       COST                     -180  STRM_URALS_KERO_11       -1
    HDT_URALS_KERO_11         COST                     -240  STRM_URALS_KERO_11       -1
    HDT_URALS_KERO_11         TSTRM_URALS_KERO_11      1  HDTCAP_11                1
    BL_URALS_KERO_GASOLINE_11  STRM_URALS_KERO_11       -1  PBAL_GASOLINE_11         1
    BL_URALS_KERO_GASOLINE_11  QUAL_GASOLINE_11         2020
    BL_URALS_KERO_JET_11      STRM_URALS_KERO_11       -1  PBAL_JET_11              1
    BL_URALS_KERO_JET_11      QUAL_JET_11              -430
    BL_URALS_KERO_DIESEL_P_11  STRM_URALS_KERO_11       -1  PBAL_DIESEL_P_11         1
    BL_URALS_KERO_DIESEL_P_11  QUAL_DIESEL_P_11         1720
    TSLACK_URALS_KERO_11      COST                     -180  TSTRM_URALS_KERO_11      -1
    TBL_URALS_KERO_GASOLINE_11  TSTRM_URALS_KERO_11      -1  PBAL_GASOLINE_11         1
    TBL_URALS_KERO_GASOLINE_11  QUAL_GASOLINE_11         32.8
    TBL_URALS_KERO_JET_11     TSTRM_URALS_KERO_11      -1  PBAL_JET_11              1
    TBL_URALS_KERO_JET_11     QUAL_JET_11              -2417.2
    TBL_URALS_KERO_DIESEL_P_11  TSTRM_URALS_KERO_11      -1  PBAL_DIESEL_P_11         1
    TBL_URALS_KERO_DIESEL_P_11  QUAL_DIESEL_P_11         -267.2
    SLACK_URALS_DIESEL_11     COST                     -180  STRM_URALS_DIESEL_11     -1
    HDT_URALS_DIESEL_11       COST                     -240  STRM_URALS_DIESEL_11     -1
    HDT_URALS_DIESEL_11       TSTRM_URALS_DIESEL_11    1  HDTCAP_11                1
    BL_URALS_DIESEL_DIESEL_P_11  STRM_URALS_DIESEL_11     -1  PBAL_DIESEL_P_11         1
    BL_URALS_DIESEL_DIESEL_P_11  QUAL_DIESEL_P_11         7240
    BL_URALS_DIESEL_FUELOIL_11  STRM_URALS_DIESEL_11     -1  PBAL_FUELOIL_11          1
    BL_URALS_DIESEL_FUELOIL_11  QUAL_FUELOIL_11          -27410
    TSLACK_URALS_DIESEL_11    COST                     -180  TSTRM_URALS_DIESEL_11    -1
    TBL_URALS_DIESEL_DIESEL_P_11  TSTRM_URALS_DIESEL_11    -1  PBAL_DIESEL_P_11         1
    TBL_URALS_DIESEL_DIESEL_P_11  QUAL_DIESEL_P_11         -46.4
    TBL_URALS_DIESEL_FUELOIL_11  TSTRM_URALS_DIESEL_11    -1  PBAL_FUELOIL_11          1
    TBL_URALS_DIESEL_FUELOIL_11  QUAL_FUELOIL_11          -34696.4
    SLACK_URALS_VGO_11        COST                     -180  STRM_URALS_VGO_11        -1
    HDT_URALS_VGO_11          COST                     -240  STRM_URALS_VGO_11        -1
    HDT_URALS_VGO_11          TSTRM_URALS_VGO_11       1  HDTCAP_11                1
    FCC_URALS_11              COST                     -310  STRM_URALS_VGO_11        -1
    FCC_URALS_11              FSTRM_URALS_NAPHTHA_11   0.55  FSTRM_URALS_DIESEL_11    0.25
    FCC_URALS_11              FCCCAP_11                1
    BL_URALS_VGO_DIESEL_P_11  STRM_URALS_VGO_11        -1  PBAL_DIESEL_P_11         1
    BL_URALS_VGO_DIESEL_P_11  QUAL_DIESEL_P_11         18280
    BL_URALS_VGO_FUELOIL_11   STRM_URALS_VGO_11        -1  PBAL_FUELOIL_11          1
    BL_URALS_VGO_FUELOIL_11   QUAL_FUELOIL_11          -16370
    TSLACK_URALS_VGO_11       COST                     -180  TSTRM_URALS_VGO_11       -1
    TBL_URALS_VGO_DIESEL_P_11  TSTRM_URALS_VGO_11       -1  PBAL_DIESEL_P_11         1
    TBL_URALS_VGO_DIESEL_P_11  QUAL_DIESEL_P_11         395.2
    TBL_URALS_VGO_FUELOIL_11  TSTRM_URALS_VGO_11       -1  PBAL_FUELOIL_11          1
    TBL_URALS_VGO_FUELOIL_11  QUAL_FUELOIL_11          -34254.8
    SLACK_URALS_RESIDUE_11    COST                     -180  STRM_URALS_RESIDUE_11    -1
    HDT_URALS_RESIDUE_11      COST                     -240  STRM_URALS_RESIDUE_11    -1
    HDT_URALS_RESIDUE_11      TSTRM_URALS_RESIDUE_11   1  HDTCAP_11                1
    BL_URALS_RESIDUE_FUELOIL_11  STRM_URALS_RESIDUE_11    -1  PBAL_FUELOIL_11          1
    BL_URALS_RESIDUE_FUELOIL_11  QUAL_FUELOIL_11          880
    TSLACK_URALS_RESIDUE_11   COST                     -180  TSTRM_URALS_RESIDUE_11   -1
    TBL_URALS_RESIDUE_FUELOIL_11  TSTRM_URALS_RESIDUE_11   -1  PBAL_FUELOIL_11          1
    TBL_URALS_RESIDUE_FUELOIL_11  QUAL_FUELOIL_11          -33564.8
    FSLACK_URALS_NAPHTHA_11   COST                     -180  FSTRM_URALS_NAPHTHA_11   -1
    FBL_URALS_NAPHTHA_GASOLINE_11  FSTRM_URALS_NAPHTHA_11   -1  PBAL_GASOLINE_11         1
    FBL_URALS_NAPHTHA_GASOLINE_11  QUAL_GASOLINE_11         46.6
    FBL_URALS_NAPHTHA_JET_11  FSTRM_URALS_NAPHTHA_11   -1  PBAL_JET_11              1
    FBL_URALS_NAPHTHA_JET_11  QUAL_JET_11              -2403.4
    FSLACK_URALS_DIESEL_11    COST                     -180  FSTRM_URALS_DIESEL_11    -1
    FBL_URALS_DIESEL_DIESEL_P_11  FSTRM_URALS_DIESEL_11    -1  PBAL_DIESEL_P_11         1
    FBL_URALS_DIESEL_DIESEL_P_11  QUAL_DIESEL_P_11         2306.5
    FBL_URALS_DIESEL_FUELOIL_11  FSTRM_URALS_DIESEL_11    -1  PBAL_FUELOIL_11          1
    FBL_URALS_DIESEL_FUELOIL_11  QUAL_FUELOIL_11          -32343.5
    BUY_MURBAN_11             COST                     -6980  CBAL_MURBAN_11           1
    INVC_MURBAN_11            COST                     -83.76  CBAL_MURBAN_11           -1
    INVC_MURBAN_11            CBAL_MURBAN_12           1
    CHG_MURBAN_11             COST                     -145  CBAL_MURBAN_11           -1
    CHG_MURBAN_11             CDUCAP_11                1  STRM_MURBAN_NAPHTHA_11   0.28
    CHG_MURBAN_11             STRM_MURBAN_KERO_11      0.19  STRM_MURBAN_DIESEL_11    0.23
    CHG_MURBAN_11             STRM_MURBAN_VGO_11       0.19  STRM_MURBAN_RESIDUE_11   0.11
    SLACK_MURBAN_NAPHTHA_11   COST                     -180  STRM_MURBAN_NAPHTHA_11   -1
    HDT_MURBAN_NAPHTHA_11     COST                     -240  STRM_MURBAN_NAPHTHA_11   -1
    HDT_MURBAN_NAPHTHA_11     TSTRM_MURBAN_NAPHTHA_11  1  HDTCAP_11                1
    BL_MURBAN_NAPHTHA_GASOLINE_11  STRM_MURBAN_NAPHTHA_11   -1  PBAL_GASOLINE_11         1
    BL_MURBAN_NAPHTHA_GASOLINE_11  QUAL_GASOLINE_11         98
    BL_MURBAN_NAPHTHA_JET_11  STRM_MURBAN_NAPHTHA_11   -1  PBAL_JET_11              1
    BL_MURBAN_NAPHTHA_JET_11  QUAL_JET_11              -2352
    TSLACK_MURBAN_NAPHTHA_11  COST                     -180  TSTRM_MURBAN_NAPHTHA_11  -1
    TBL_MURBAN_NAPHTHA_GASOLINE_11  TSTRM_MURBAN_NAPHTHA_11  -1  PBAL_GASOLINE_11         1
    TBL_MURBAN_NAPHTHA_GASOLINE_11  QUAL_GASOLINE_11         -44.08
    TBL_MURBAN_NAPHTHA_JET_11  TSTRM_MURBAN_NAPHTHA_11  -1  PBAL_JET_11              1
    TBL_MURBAN_NAPHTHA_JET_11  QUAL_JET_11              -2494.08
    SLACK_MURBAN_KERO_11      COST                     -180  STRM_MURBAN_KERO_11      -1
    HDT_MURBAN_KERO_11        COST                     -240  STRM_MURBAN_KERO_11      -1
    HDT_MURBAN_KERO_11        TSTRM_MURBAN_KERO_11     1  HDTCAP_11                1
    BL_MURBAN_KERO_GASOLINE_11  STRM_MURBAN_KERO_11      -1  PBAL_GASOLINE_11         1
    BL_MURBAN_KERO_GASOLINE_11  QUAL_GASOLINE_11         1060
    BL_MURBAN_KERO_JET_11     STRM_MURBAN_KERO_11      -1  PBAL_JET_11              1
    BL_MURBAN_KERO_JET_11     QUAL_JET_11              -1390
    BL_MURBAN_KERO_DIESEL_P_11  STRM_MURBAN_KERO_11      -1  PBAL_DIESEL_P_11         1
    BL_MURBAN_KERO_DIESEL_P_11  QUAL_DIESEL_P_11         760
    TSLACK_MURBAN_KERO_11     COST                     -180  TSTRM_MURBAN_KERO_11     -1
    TBL_MURBAN_KERO_GASOLINE_11  TSTRM_MURBAN_KERO_11     -1  PBAL_GASOLINE_11         1
    TBL_MURBAN_KERO_GASOLINE_11  QUAL_GASOLINE_11         -5.6
    TBL_MURBAN_KERO_JET_11    TSTRM_MURBAN_KERO_11     -1  PBAL_JET_11              1
    TBL_MURBAN_KERO_JET_11    QUAL_JET_11              -2455.6
    TBL_MURBAN_KERO_DIESEL_P_11  TSTRM_MURBAN_KERO_11     -1  PBAL_DIESEL_P_11         1
    TBL_MURBAN_KERO_DIESEL_P_11  QUAL_DIESEL_P_11         -305.6
    SLACK_MURBAN_DIESEL_11    COST                     -180  STRM_MURBAN_DIESEL_11    -1
    HDT_MURBAN_DIESEL_11      COST                     -240  STRM_MURBAN_DIESEL_11    -1
    HDT_MURBAN_DIESEL_11      TSTRM_MURBAN_DIESEL_11   1  HDTCAP_11                1
    BL_MURBAN_DIESEL_DIESEL_P_11  STRM_MURBAN_DIESEL_11    -1  PBAL_DIESEL_P_11         1
    BL_MURBAN_DIESEL_DIESEL_P_11  QUAL_DIESEL_P_11         3720
    BL_MURBAN_DIESEL_FUELOIL_11  STRM_MURBAN_DIESEL_11    -1  PBAL_FUELOIL_11          1
    BL_MURBAN_DIESEL_FUELOIL_11  QUAL_FUELOIL_11          -30930
    TSLACK_MURBAN_DIESEL_11   COST                     -180  TSTRM_MURBAN_DIESEL_11   -1
    TBL_MURBAN_DIESEL_DIESEL_P_11  TSTRM_MURBAN_DIESEL_11   -1  PBAL_DIESEL_P_11         1
    TBL_MURBAN_DIESEL_DIESEL_P_11  QUAL_DIESEL_P_11         -187.2
    TBL_MURBAN_DIESEL_FUELOIL_11  TSTRM_MURBAN_DIESEL_11   -1  PBAL_FUELOIL_11          1
    TBL_MURBAN_DIESEL_FUELOIL_11  QUAL_FUELOIL_11          -34837.2
    SLACK_MURBAN_VGO_11       COST                     -180  STRM_MURBAN_VGO_11       -1
    HDT_MURBAN_VGO_11         COST                     -240  STRM_MURBAN_VGO_11       -1
    HDT_MURBAN_VGO_11         TSTRM_MURBAN_VGO_11      1  HDTCAP_11                1
    FCC_MURBAN_11             COST                     -310  STRM_MURBAN_VGO_11       -1
    FCC_MURBAN_11             FSTRM_MURBAN_NAPHTHA_11  0.55  FSTRM_MURBAN_DIESEL_11   0.25
    FCC_MURBAN_11             FCCCAP_11                1
    BL_MURBAN_VGO_DIESEL_P_11  STRM_MURBAN_VGO_11       -1  PBAL_DIESEL_P_11         1
    BL_MURBAN_VGO_DIESEL_P_11  QUAL_DIESEL_P_11         9640
    BL_MURBAN_VGO_FUELOIL_11  STRM_MURBAN_VGO_11       -1  PBAL_FUELOIL_11          1
    BL_MURBAN_VGO_FUELOIL_11  QUAL_FUELOIL_11          -25010
    TSLACK_MURBAN_VGO_11      COST                     -180  TSTRM_MURBAN_VGO_11      -1
    TBL_MURBAN_VGO_DIESEL_P_11  TSTRM_MURBAN_VGO_11      -1  PBAL_DIESEL_P_11         1
    TBL_MURBAN_VGO_DIESEL_P_11  QUAL_DIESEL_P_11         49.6
    TBL_MURBAN_VGO_FUELOIL_11  TSTRM_MURBAN_VGO_11      -1  PBAL_FUELOIL_11          1
    TBL_MURBAN_VGO_FUELOIL_11  QUAL_FUELOIL_11          -34600.4
    SLACK_MURBAN_RESIDUE_11   COST                     -180  STRM_MURBAN_RESIDUE_11   -1
    HDT_MURBAN_RESIDUE_11     COST                     -240  STRM_MURBAN_RESIDUE_11   -1
    HDT_MURBAN_RESIDUE_11     TSTRM_MURBAN_RESIDUE_11  1  HDTCAP_11                1
    BL_MURBAN_RESIDUE_FUELOIL_11  STRM_MURBAN_RESIDUE_11   -1  PBAL_FUELOIL_11          1
    BL_MURBAN_RESIDUE_FUELOIL_11  QUAL_FUELOIL_11          -15760
    TSLACK_MURBAN_RESIDUE_11  COST                     -180  TSTRM_MURBAN_RESIDUE_11  -1
    TBL_MURBAN_RESIDUE_FUELOIL_11  TSTRM_MURBAN_RESIDUE_11  -1  PBAL_FUELOIL_11          1
    TBL_MURBAN_RESIDUE_FUELOIL_11  QUAL_FUELOIL_11          -34230.4
    FSLACK_MURBAN_NAPHTHA_11  COST                     -180  FSTRM_MURBAN_NAPHTHA_11  -1
    FBL_MURBAN_NAPHTHA_GASOLINE_11  FSTRM_MURBAN_NAPHTHA_11  -1  PBAL_GASOLINE_11         1
    FBL_MURBAN_NAPHTHA_GASOLINE_11  QUAL_GASOLINE_11         1.8
    FBL_MURBAN_NAPHTHA_JET_11  FSTRM_MURBAN_NAPHTHA_11  -1  PBAL_JET_11              1
    FBL_MURBAN_NAPHTHA_JET_11  QUAL_JET_11              -2448.2
    FSLACK_MURBAN_DIESEL_11   COST                     -180  FSTRM_MURBAN_DIESEL_11   -1
    FBL_MURBAN_DIESEL_DIESEL_P_11  FSTRM_MURBAN_DIESEL_11   -1  PBAL_DIESEL_P_11         1
    FBL_MURBAN_DIESEL_DIESEL_P_11  QUAL_DIESEL_P_11         1074.5
    FBL_MURBAN_DIESEL_FUELOIL_11  FSTRM_MURBAN_DIESEL_11   -1  PBAL_FUELOIL_11          1
    FBL_MURBAN_DIESEL_FUELOIL_11  QUAL_FUELOIL_11          -33575.5
    BUY_ES_SIDER_11           COST                     -6540  CBAL_ES_SIDER_11         1
    INVC_ES_SIDER_11          COST                     -78.48  CBAL_ES_SIDER_11         -1
    INVC_ES_SIDER_11          CBAL_ES_SIDER_12         1
    CHG_ES_SIDER_11           COST                     -145  CBAL_ES_SIDER_11         -1
    CHG_ES_SIDER_11           CDUCAP_11                1  STRM_ES_SIDER_NAPHTHA_11 0.25
    CHG_ES_SIDER_11           STRM_ES_SIDER_KERO_11    0.18  STRM_ES_SIDER_DIESEL_11  0.25
    CHG_ES_SIDER_11           STRM_ES_SIDER_VGO_11     0.2  STRM_ES_SIDER_RESIDUE_11 0.12
    SLACK_ES_SIDER_NAPHTHA_11  COST                     -180  STRM_ES_SIDER_NAPHTHA_11 -1
    HDT_ES_SIDER_NAPHTHA_11   COST                     -240  STRM_ES_SIDER_NAPHTHA_11 -1
    HDT_ES_SIDER_NAPHTHA_11   TSTRM_ES_SIDER_NAPHTHA_11 1  HDTCAP_11                1
    BL_ES_SIDER_NAPHTHA_GASOLINE_11  STRM_ES_SIDER_NAPHTHA_11 -1  PBAL_GASOLINE_11         1
    BL_ES_SIDER_NAPHTHA_GASOLINE_11  QUAL_GASOLINE_11         32
    BL_ES_SIDER_NAPHTHA_JET_11  STRM_ES_SIDER_NAPHTHA_11 -1  PBAL_JET_11              1
    BL_ES_SIDER_NAPHTHA_JET_11  QUAL_JET_11              -2418
    TSLACK_ES_SIDER_NAPHTHA_11  COST                     -180  TSTRM_ES_SIDER_NAPHTHA_11 -1
    TBL_ES_SIDER_NAPHTHA_GASOLINE_11  TSTRM_ES_SIDER_NAPHTHA_11 -1  PBAL_GASOLINE_11         1
    TBL_ES_SIDER_NAPHTHA_GASOLINE_11  QUAL_GASOLINE_11         -46.72
    TBL_ES_SIDER_NAPHTHA_JET_11  TSTRM_ES_SIDER_NAPHTHA_11 -1  PBAL_JET_11              1
    TBL_ES_SIDER_NAPHTHA_JET_11  QUAL_JET_11              -2496.72
    SLACK_ES_SIDER_KERO_11    COST                     -180  STRM_ES_SIDER_KERO_11    -1
    HDT_ES_SIDER_KERO_11      COST                     -240  STRM_ES_SIDER_KERO_11    -1
    HDT_ES_SIDER_KERO_11      TSTRM_ES_SIDER_KERO_11   1  HDTCAP_11                1
    BL_ES_SIDER_KERO_GASOLINE_11  STRM_ES_SIDER_KERO_11    -1  PBAL_GASOLINE_11         1
    BL_ES_SIDER_KERO_GASOLINE_11  QUAL_GASOLINE_11         565
    BL_ES_SIDER_KERO_JET_11   STRM_ES_SIDER_KERO_11    -1  PBAL_JET_11              1
    BL_ES_SIDER_KERO_JET_11   QUAL_JET_11              -1885
    BL_ES_SIDER_KERO_DIESEL_P_11  STRM_ES_SIDER_KERO_11    -1  PBAL_DIESEL_P_11         1
    BL_ES_SIDER_KERO_DIESEL_P_11  QUAL_DIESEL_P_11         265
    TSLACK_ES_SIDER_KERO_11   COST                     -180  TSTRM_ES_SIDER_KERO_11   -1
    TBL_ES_SIDER_KERO_GASOLINE_11  TSTRM_ES_SIDER_KERO_11   -1  PBAL_GASOLINE_11         1
    TBL_ES_SIDER_KERO_GASOLINE_11  QUAL_GASOLINE_11         -25.4
    TBL_ES_SIDER_KERO_JET_11  TSTRM_ES_SIDER_KERO_11   -1  PBAL_JET_11              1
    TBL_ES_SIDER_KERO_JET_11  QUAL_JET_11              -2475.4
    TBL_ES_SIDER_KERO_DIESEL_P_11  TSTRM_ES_SIDER_KERO_11   -1  PBAL_DIESEL_P_11         1
    TBL_ES_SIDER_KERO_DIESEL_P_11  QUAL_DIESEL_P_11         -325.4
    SLACK_ES_SIDER_DIESEL_11  COST                     -180  STRM_ES_SIDER_DIESEL_11  -1
    HDT_ES_SIDER_DIESEL_11    COST                     -240  STRM_ES_SIDER_DIESEL_11  -1
    HDT_ES_SIDER_DIESEL_11    TSTRM_ES_SIDER_DIESEL_11 1  HDTCAP_11                1
    BL_ES_SIDER_DIESEL_DIESEL_P_11  STRM_ES_SIDER_DIESEL_11  -1  PBAL_DIESEL_P_11         1
    BL_ES_SIDER_DIESEL_DIESEL_P_11  QUAL_DIESEL_P_11         1905
    BL_ES_SIDER_DIESEL_FUELOIL_11  STRM_ES_SIDER_DIESEL_11  -1  PBAL_FUELOIL_11          1
    BL_ES_SIDER_DIESEL_FUELOIL_11  QUAL_FUELOIL_11          -32745
    TSLACK_ES_SIDER_DIESEL_11  COST                     -180  TSTRM_ES_SIDER_DIESEL_11 -1
    TBL_ES_SIDER_DIESEL_DIESEL_P_11  TSTRM_ES_SIDER_DIESEL_11 -1  PBAL_DIESEL_P_11         1
    TBL_ES_SIDER_DIESEL_DIESEL_P_11  QUAL_DIESEL_P_11         -259.8
    TBL_ES_SIDER_DIESEL_FUELOIL_11  TSTRM_ES_SIDER_DIESEL_11 -1  PBAL_FUELOIL_11          1
    TBL_ES_SIDER_DIESEL_FUELOIL_11  QUAL_FUELOIL_11          -34909.8
    SLACK_ES_SIDER_VGO_11     COST                     -180  STRM_ES_SIDER_VGO_11     -1
    HDT_ES_SIDER_VGO_11       COST                     -240  STRM_ES_SIDER_VGO_11     -1
    HDT_ES_SIDER_VGO_11       TSTRM_ES_SIDER_VGO_11    1  HDTCAP_11                1
    FCC_ES_SIDER_11           COST                     -310  STRM_ES_SIDER_VGO_11     -1
    FCC_ES_SIDER_11           FSTRM_ES_SIDER_NAPHTHA_11 0.55  FSTRM_ES_SIDER_DIESEL_11 0.25
    FCC_ES_SIDER_11           FCCCAP_11                1
    BL_ES_SIDER_VGO_DIESEL_P_11  STRM_ES_SIDER_VGO_11     -1  PBAL_DIESEL_P_11         1
    BL_ES_SIDER_VGO_DIESEL_P_11  QUAL_DIESEL_P_11         5185
    BL_ES_SIDER_VGO_FUELOIL_11  STRM_ES_SIDER_VGO_11     -1  PBAL_FUELOIL_11          1
    BL_ES_SIDER_VGO_FUELOIL_11  QUAL_FUELOIL_11          -29465
    TSLACK_ES_SIDER_VGO_11    COST                     -180  TSTRM_ES_SIDER_VGO_11    -1
    TBL_ES_SIDER_VGO_DIESEL_P_11  TSTRM_ES_SIDER_VGO_11    -1  PBAL_DIESEL_P_11         1
    TBL_ES_SIDER_VGO_DIESEL_P_11  QUAL_DIESEL_P_11         -128.6
    TBL_ES_SIDER_VGO_FUELOIL_11  TSTRM_ES_SIDER_VGO_11    -1  PBAL_FUELOIL_11          1
    TBL_ES_SIDER_VGO_FUELOIL_11  QUAL_FUELOIL_11          -34778.6
    SLACK_ES_SIDER_RESIDUE_11  COST                     -180  STRM_ES_SIDER_RESIDUE_11 -1
    HDT_ES_SIDER_RESIDUE_11   COST                     -240  STRM_ES_SIDER_RESIDUE_11 -1
    HDT_ES_SIDER_RESIDUE_11   TSTRM_ES_SIDER_RESIDUE_11 1  HDTCAP_11                1
    BL_ES_SIDER_RESIDUE_FUELOIL_11  STRM_ES_SIDER_RESIDUE_11 -1  PBAL_FUELOIL_11          1
    BL_ES_SIDER_RESIDUE_FUELOIL_11  QUAL_FUELOIL_11          -24340
    TSLACK_ES_SIDER_RESIDUE_11  COST                     -180  TSTRM_ES_SIDER_RESIDUE_11 -1
    TBL_ES_SIDER_RESIDUE_FUELOIL_11  TSTRM_ES_SIDER_RESIDUE_11 -1  PBAL_FUELOIL_11          1
    TBL_ES_SIDER_RESIDUE_FUELOIL_11  QUAL_FUELOIL_11          -34573.6
    FSLACK_ES_SIDER_NAPHTHA_11  COST                     -180  FSTRM_ES_SIDER_NAPHTHA_11 -1
    FBL_ES_SIDER_NAPHTHA_GASOLINE_11  FSTRM_ES_SIDER_NAPHTHA_11 -1  PBAL_GASOLINE_11         1
    FBL_ES_SIDER_NAPHTHA_GASOLINE_11  QUAL_GASOLINE_11         -21.3
    FBL_ES_SIDER_NAPHTHA_JET_11  FSTRM_ES_SIDER_NAPHTHA_11 -1  PBAL_JET_11              1
    FBL_ES_SIDER_NAPHTHA_JET_11  QUAL_JET_11              -2471.3
    FSLACK_ES_SIDER_DIESEL_11  COST                     -180  FSTRM_ES_SIDER_DIESEL_11 -1
    FBL_ES_SIDER_DIESEL_DIESEL_P_11  FSTRM_ES_SIDER_DIESEL_11 -1  PBAL_DIESEL_P_11         1
    FBL_ES_SIDER_DIESEL_DIESEL_P_11  QUAL_DIESEL_P_11         439.25
    FBL_ES_SIDER_DIESEL_FUELOIL_11  FSTRM_ES_SIDER_DIESEL_11 -1  PBAL_FUELOIL_11          1
    FBL_ES_SIDER_DIESEL_FUELOIL_11  QUAL_FUELOIL_11          -34210.75
    BUY_QUA_IBOE_11           COST                     -6890  CBAL_QUA_IBOE_11         1
    INVC_QUA_IBOE_11          COST                     -82.68  CBAL_QUA_IBOE_11         -1
    INVC_QUA_IBOE_11          CBAL_QUA_IBOE_12         1
    CHG_QUA_IBOE_11           COST                     -145  CBAL_QUA_IBOE_11         -1
    CHG_QUA_IBOE_11           CDUCAP_11                1  STRM_QUA_IBOE_NAPHTHA_11 0.27
    CHG_QUA_IBOE_11           STRM_QUA_IBOE_KERO_11    0.2  STRM_QUA_IBOE_DIESEL_11  0.25
    CHG_QUA_IBOE_11           STRM_QUA_IBOE_VGO_11     0.18  STRM_QUA_IBOE_RESIDUE_11 0.1
    SLACK_QUA_IBOE_NAPHTHA_11  COST                     -180  STRM_QUA_IBOE_NAPHTHA_11 -1
    HDT_QUA_IBOE_NAPHTHA_11   COST                     -240  STRM_QUA_IBOE_NAPHTHA_11 -1
    HDT_QUA_IBOE_NAPHTHA_11   TSTRM_QUA_IBOE_NAPHTHA_11 1  HDTCAP_11                1
    BL_QUA_IBOE_NAPHTHA_GASOLINE_11  STRM_QUA_IBOE_NAPHTHA_11 -1  PBAL_GASOLINE_11         1
    BL_QUA_IBOE_NAPHTHA_GASOLINE_11  QUAL_GASOLINE_11         -24
    BL_QUA_IBOE_NAPHTHA_JET_11  STRM_QUA_IBOE_NAPHTHA_11 -1  PBAL_JET_11              1
    BL_QUA_IBOE_NAPHTHA_JET_11  QUAL_JET_11              -2474
    TSLACK_QUA_IBOE_NAPHTHA_11  COST                     -180  TSTRM_QUA_IBOE_NAPHTHA_11 -1
    TBL_QUA_IBOE_NAPHTHA_GASOLINE_11  TSTRM_QUA_IBOE_NAPHTHA_11 -1  PBAL_GASOLINE_11         1
    TBL_QUA_IBOE_NAPHTHA_GASOLINE_11  QUAL_GASOLINE_11         -48.96
    TBL_QUA_IBOE_NAPHTHA_JET_11  TSTRM_QUA_IBOE_NAPHTHA_11 -1  PBAL_JET_11              1
    TBL_QUA_IBOE_NAPHTHA_JET_11  QUAL_JET_11              -2498.96
    SLACK_QUA_IBOE_KERO_11    COST                     -180  STRM_QUA_IBOE_KERO_11    -1
    HDT_QUA_IBOE_KERO_11      COST                     -240  STRM_QUA_IBOE_KERO_11    -1
    HDT_QUA_IBOE_KERO_11      TSTRM_QUA_IBOE_KERO_11   1  HDTCAP_11                1
    BL_QUA_IBOE_KERO_GASOLINE_11  STRM_QUA_IBOE_KERO_11    -1  PBAL_GASOLINE_11         1
    BL_QUA_IBOE_KERO_GASOLINE_11  QUAL_GASOLINE_11         145
    BL_QUA_IBOE_KERO_JET_11   STRM_QUA_IBOE_KERO_11    -1  PBAL_JET_11              1
    BL_QUA_IBOE_KERO_JET_11   QUAL_JET_11              -2305
    BL_QUA_IBOE_KERO_DIESEL_P_11  STRM_QUA_IBOE_KERO_11    -1  PBAL_DIESEL_P_11         1
    BL_QUA_IBOE_KERO_DIESEL_P_11  QUAL_DIESEL_P_11         -155
    TSLACK_QUA_IBOE_KERO_11   COST                     -180  TSTRM_QUA_IBOE_KERO_11   -1
    TBL_QUA_IBOE_KERO_GASOLINE_11  TSTRM_QUA_IBOE_KERO_11   -1  PBAL_GASOLINE_11         1
    TBL_QUA_IBOE_KERO_GASOLINE_11  QUAL_GASOLINE_11         -42.2
    TBL_QUA_IBOE_KERO_JET_11  TSTRM_QUA_IBOE_KERO_11   -1  PBAL_JET_11              1
    TBL_QUA_IBOE_KERO_JET_11  QUAL_JET_11              -2492.2
    TBL_QUA_IBOE_KERO_DIESEL_P_11  TSTRM_QUA_IBOE_KERO_11   -1  PBAL_DIESEL_P_11         1
    TBL_QUA_IBOE_KERO_DIESEL_P_11  QUAL_DIESEL_P_11         -342.2
    SLACK_QUA_IBOE_DIESEL_11  COST                     -180  STRM_QUA_IBOE_DIESEL_11  -1
    HDT_QUA_IBOE_DIESEL_11    COST                     -240  STRM_QUA_IBOE_DIESEL_11  -1
    HDT_QUA_IBOE_DIESEL_11    TSTRM_QUA_IBOE_DIESEL_11 1  HDTCAP_11                1
    BL_QUA_IBOE_DIESEL_DIESEL_P_11  STRM_QUA_IBOE_DIESEL_11  -1  PBAL_DIESEL_P_11         1
    BL_QUA_IBOE_DIESEL_DIESEL_P_11  QUAL_DIESEL_P_11         365
    BL_QUA_IBOE_DIESEL_FUELOIL_11  STRM_QUA_IBOE_DIESEL_11  -1  PBAL_FUELOIL_11          1
    BL_QUA_IBOE_DIESEL_FUELOIL_11  QUAL_FUELOIL_11          -34285
    TSLACK_QUA_IBOE_DIESEL_11  COST                     -180  TSTRM_QUA_IBOE_DIESEL_11 -1
    TBL_QUA_IBOE_DIESEL_DIESEL_P_11  TSTRM_QUA_IBOE_DIESEL_11 -1  PBAL_DIESEL_P_11         1
    TBL_QUA_IBOE_DIESEL_DIESEL_P_11  QUAL_DIESEL_P_11         -321.4
    TBL_QUA_IBOE_DIESEL_FUELOIL_11  TSTRM_QUA_IBOE_DIESEL_11 -1  PBAL_FUELOIL_11          1
    TBL_QUA_IBOE_DIESEL_FUELOIL_11  QUAL_FUELOIL_11          -34971.4
    SLACK_QUA_IBOE_VGO_11     COST                     -180  STRM_QUA_IBOE_VGO_11     -1
    HDT_QUA_IBOE_VGO_11       COST                     -240  STRM_QUA_IBOE_VGO_11     -1
    HDT_QUA_IBOE_VGO_11       TSTRM_QUA_IBOE_VGO_11    1  HDTCAP_11                1
    FCC_QUA_IBOE_11           COST                     -310  STRM_QUA_IBOE_VGO_11     -1
    FCC_QUA_IBOE_11           FSTRM_QUA_IBOE_NAPHTHA_11 0.55  FSTRM_QUA_IBOE_DIESEL_11 0.25
    FCC_QUA_IBOE_11           FCCCAP_11                1
    BL_QUA_IBOE_VGO_DIESEL_P_11  STRM_QUA_IBOE_VGO_11     -1  PBAL_DIESEL_P_11         1
    BL_QUA_IBOE_VGO_DIESEL_P_11  QUAL_DIESEL_P_11         1405
    BL_QUA_IBOE_VGO_FUELOIL_11  STRM_QUA_IBOE_VGO_11     -1  PBAL_FUELOIL_11          1
    BL_QUA_IBOE_VGO_FUELOIL_11  QUAL_FUELOIL_11          -33245
    TSLACK_QUA_IBOE_VGO_11    COST                     -180  TSTRM_QUA_IBOE_VGO_11    -1
    TBL_QUA_IBOE_VGO_DIESEL_P_11  TSTRM_QUA_IBOE_VGO_11    -1  PBAL_DIESEL_P_11         1
    TBL_QUA_IBOE_VGO_DIESEL_P_11  QUAL_DIESEL_P_11         -279.8
    TBL_QUA_IBOE_VGO_FUELOIL_11  TSTRM_QUA_IBOE_VGO_11    -1  PBAL_FUELOIL_11          1
    TBL_QUA_IBOE_VGO_FUELOIL_11  QUAL_FUELOIL_11          -34929.8
    SLACK_QUA_IBOE_RESIDUE_11  COST                     -180  STRM_QUA_IBOE_RESIDUE_11 -1
    HDT_QUA_IBOE_RESIDUE_11   COST                     -240  STRM_QUA_IBOE_RESIDUE_11 -1
    HDT_QUA_IBOE_RESIDUE_11   TSTRM_QUA_IBOE_RESIDUE_11 1  HDTCAP_11                1
    BL_QUA_IBOE_RESIDUE_FUELOIL_11  STRM_QUA_IBOE_RESIDUE_11 -1  PBAL_FUELOIL_11          1
    BL_QUA_IBOE_RESIDUE_FUELOIL_11  QUAL_FUELOIL_11          -31620
    TSLACK_QUA_IBOE_RESIDUE_11  COST                     -180  TSTRM_QUA_IBOE_RESIDUE_11 -1
    TBL_QUA_IBOE_RESIDUE_FUELOIL_11  TSTRM_QUA_IBOE_RESIDUE_11 -1  PBAL_FUELOIL_11          1
    TBL_QUA_IBOE_RESIDUE_FUELOIL_11  QUAL_FUELOIL_11          -34864.8
    FSLACK_QUA_IBOE_NAPHTHA_11  COST                     -180  FSTRM_QUA_IBOE_NAPHTHA_11 -1
    FBL_QUA_IBOE_NAPHTHA_GASOLINE_11  FSTRM_QUA_IBOE_NAPHTHA_11 -1  PBAL_GASOLINE_11         1
    FBL_QUA_IBOE_NAPHTHA_GASOLINE_11  QUAL_GASOLINE_11         -40.9
    FBL_QUA_IBOE_NAPHTHA_JET_11  FSTRM_QUA_IBOE_NAPHTHA_11 -1  PBAL_JET_11              1
    FBL_QUA_IBOE_NAPHTHA_JET_11  QUAL_JET_11              -2490.9
    FSLACK_QUA_IBOE_DIESEL_11  COST                     -180  FSTRM_QUA_IBOE_DIESEL_11 -1
    FBL_QUA_IBOE_DIESEL_DIESEL_P_11  FSTRM_QUA_IBOE_DIESEL_11 -1  PBAL_DIESEL_P_11         1
    FBL_QUA_IBOE_DIESEL_DIESEL_P_11  QUAL_DIESEL_P_11         -99.75
    FBL_QUA_IBOE_DIESEL_FUELOIL_11  FSTRM_QUA_IBOE_DIESEL_11 -1  PBAL_FUELOIL_11          1
    FBL_QUA_IBOE_DIESEL_FUELOIL_11  QUAL_FUELOIL_11          -34749.75
    SELL_GASOLINE_11          COST                     9250  PBAL_GASOLINE_11         -1
    SELL_JET_11               COST                     8900  PBAL_JET_11              -1
    SELL_DIESEL_P_11          COST                     8600  PBAL_DIESEL_P_11         -1
    SELL_FUELOIL_11           COST                     4900  PBAL_FUELOIL_11          -1
    BUY_BOMBAY_HIGH_12        COST                     -6850  CBAL_BOMBAY_HIGH_12      1
    INVC_BOMBAY_HIGH_12       COST                     -82.2  CBAL_BOMBAY_HIGH_12      -1
    CHG_BOMBAY_HIGH_12        COST                     -145  CBAL_BOMBAY_HIGH_12      -1
    CHG_BOMBAY_HIGH_12        CDUCAP_12                1  STRM_BOMBAY_HIGH_NAPHTHA_12 0.26
    CHG_BOMBAY_HIGH_12        STRM_BOMBAY_HIGH_KERO_12 0.18  STRM_BOMBAY_HIGH_DIESEL_12 0.24
    CHG_BOMBAY_HIGH_12        STRM_BOMBAY_HIGH_VGO_12  0.2  STRM_BOMBAY_HIGH_RESIDUE_12 0.12
    SLACK_BOMBAY_HIGH_NAPHTHA_12  COST                     -180  STRM_BOMBAY_HIGH_NAPHTHA_12 -1
    HDT_BOMBAY_HIGH_NAPHTHA_12  COST                     -240  STRM_BOMBAY_HIGH_NAPHTHA_12 -1
    HDT_BOMBAY_HIGH_NAPHTHA_12  TSTRM_BOMBAY_HIGH_NAPHTHA_12 1  HDTCAP_12                1
    BL_BOMBAY_HIGH_NAPHTHA_GASOLINE_12  STRM_BOMBAY_HIGH_NAPHTHA_12 -1  PBAL_GASOLINE_12         1
    BL_BOMBAY_HIGH_NAPHTHA_GASOLINE_12  QUAL_GASOLINE_12         -32
    BL_BOMBAY_HIGH_NAPHTHA_JET_12  STRM_BOMBAY_HIGH_NAPHTHA_12 -1  PBAL_JET_12              1
    BL_BOMBAY_HIGH_NAPHTHA_JET_12  QUAL_JET_12              -2482
    TSLACK_BOMBAY_HIGH_NAPHTHA_12  COST                     -180  TSTRM_BOMBAY_HIGH_NAPHTHA_12 -1
    TBL_BOMBAY_HIGH_NAPHTHA_GASOLINE_12  TSTRM_BOMBAY_HIGH_NAPHTHA_12 -1  PBAL_GASOLINE_12         1
    TBL_BOMBAY_HIGH_NAPHTHA_GASOLINE_12  QUAL_GASOLINE_12         -49.28
    TBL_BOMBAY_HIGH_NAPHTHA_JET_12  TSTRM_BOMBAY_HIGH_NAPHTHA_12 -1  PBAL_JET_12              1
    TBL_BOMBAY_HIGH_NAPHTHA_JET_12  QUAL_JET_12              -2499.28
    SLACK_BOMBAY_HIGH_KERO_12  COST                     -180  STRM_BOMBAY_HIGH_KERO_12 -1
    HDT_BOMBAY_HIGH_KERO_12   COST                     -240  STRM_BOMBAY_HIGH_KERO_12 -1
    HDT_BOMBAY_HIGH_KERO_12   TSTRM_BOMBAY_HIGH_KERO_12 1  HDTCAP_12                1
    BL_BOMBAY_HIGH_KERO_GASOLINE_12  STRM_BOMBAY_HIGH_KERO_12 -1  PBAL_GASOLINE_12         1
    BL_BOMBAY_HIGH_KERO_GASOLINE_12  QUAL_GASOLINE_12         85
    BL_BOMBAY_HIGH_KERO_JET_12  STRM_BOMBAY_HIGH_KERO_12 -1  PBAL_JET_12              1
    BL_BOMBAY_HIGH_KERO_JET_12  QUAL_JET_12              -2365
    BL_BOMBAY_HIGH_KERO_DIESEL_P_12  STRM_BOMBAY_HIGH_KERO_12 -1  PBAL_DIESEL_P_12         1
    BL_BOMBAY_HIGH_KERO_DIESEL_P_12  QUAL_DIESEL_P_12         -215
    TSLACK_BOMBAY_HIGH_KERO_12  COST                     -180  TSTRM_BOMBAY_HIGH_KERO_12 -1
    TBL_BOMBAY_HIGH_KERO_GASOLINE_12  TSTRM_BOMBAY_HIGH_KERO_12 -1  PBAL_GASOLINE_12         1
    TBL_BOMBAY_HIGH_KERO_GASOLINE_12  QUAL_GASOLINE_12         -44.6
    TBL_BOMBAY_HIGH_KERO_JET_12  TSTRM_BOMBAY_HIGH_KERO_12 -1  PBAL_JET_12              1
    TBL_BOMBAY_HIGH_KERO_JET_12  QUAL_JET_12              -2494.6
    TBL_BOMBAY_HIGH_KERO_DIESEL_P_12  TSTRM_BOMBAY_HIGH_KERO_12 -1  PBAL_DIESEL_P_12         1
    TBL_BOMBAY_HIGH_KERO_DIESEL_P_12  QUAL_DIESEL_P_12         -344.6
    SLACK_BOMBAY_HIGH_DIESEL_12  COST                     -180  STRM_BOMBAY_HIGH_DIESEL_12 -1
    HDT_BOMBAY_HIGH_DIESEL_12  COST                     -240  STRM_BOMBAY_HIGH_DIESEL_12 -1
    HDT_BOMBAY_HIGH_DIESEL_12  TSTRM_BOMBAY_HIGH_DIESEL_12 1  HDTCAP_12                1
    BL_BOMBAY_HIGH_DIESEL_DIESEL_P_12  STRM_BOMBAY_HIGH_DIESEL_12 -1  PBAL_DIESEL_P_12         1
    BL_BOMBAY_HIGH_DIESEL_DIESEL_P_12  QUAL_DIESEL_P_12         145
    BL_BOMBAY_HIGH_DIESEL_FUELOIL_12  STRM_BOMBAY_HIGH_DIESEL_12 -1  PBAL_FUELOIL_12          1
    BL_BOMBAY_HIGH_DIESEL_FUELOIL_12  QUAL_FUELOIL_12          -34505
    TSLACK_BOMBAY_HIGH_DIESEL_12  COST                     -180  TSTRM_BOMBAY_HIGH_DIESEL_12 -1
    TBL_BOMBAY_HIGH_DIESEL_DIESEL_P_12  TSTRM_BOMBAY_HIGH_DIESEL_12 -1  PBAL_DIESEL_P_12         1
    TBL_BOMBAY_HIGH_DIESEL_DIESEL_P_12  QUAL_DIESEL_P_12         -330.2
    TBL_BOMBAY_HIGH_DIESEL_FUELOIL_12  TSTRM_BOMBAY_HIGH_DIESEL_12 -1  PBAL_FUELOIL_12          1
    TBL_BOMBAY_HIGH_DIESEL_FUELOIL_12  QUAL_FUELOIL_12          -34980.2
    SLACK_BOMBAY_HIGH_VGO_12  COST                     -180  STRM_BOMBAY_HIGH_VGO_12  -1
    HDT_BOMBAY_HIGH_VGO_12    COST                     -240  STRM_BOMBAY_HIGH_VGO_12  -1
    HDT_BOMBAY_HIGH_VGO_12    TSTRM_BOMBAY_HIGH_VGO_12 1  HDTCAP_12                1
    FCC_BOMBAY_HIGH_12        COST                     -310  STRM_BOMBAY_HIGH_VGO_12  -1
    FCC_BOMBAY_HIGH_12        FSTRM_BOMBAY_HIGH_NAPHTHA_12 0.55  FSTRM_BOMBAY_HIGH_DIESEL_12 0.25
    FCC_BOMBAY_HIGH_12        FCCCAP_12                1
    BL_BOMBAY_HIGH_VGO_DIESEL_P_12  STRM_BOMBAY_HIGH_VGO_12  -1  PBAL_DIESEL_P_12         1
    BL_BOMBAY_HIGH_VGO_DIESEL_P_12  QUAL_DIESEL_P_12         865
    BL_BOMBAY_HIGH_VGO_FUELOIL_12  STRM_BOMBAY_HIGH_VGO_12  -1  PBAL_FUELOIL_12          1
    BL_BOMBAY_HIGH_VGO_FUELOIL_12  QUAL_FUELOIL_12          -33785
    TSLACK_BOMBAY_HIGH_VGO_12  COST                     -180  TSTRM_BOMBAY_HIGH_VGO_12 -1
    TBL_BOMBAY_HIGH_VGO_DIESEL_P_12  TSTRM_BOMBAY_HIGH_VGO_12 -1  PBAL_DIESEL_P_12         1
    TBL_BOMBAY_HIGH_VGO_DIESEL_P_12  QUAL_DIESEL_P_12         -301.4
    TBL_BOMBAY_HIGH_VGO_FUELOIL_12  TSTRM_BOMBAY_HIGH_VGO_12 -1  PBAL_FUELOIL_12          1
    TBL_BOMBAY_HIGH_VGO_FUELOIL_12  QUAL_FUELOIL_12          -34951.4
    SLACK_BOMBAY_HIGH_RESIDUE_12  COST                     -180  STRM_BOMBAY_HIGH_RESIDUE_12 -1
    HDT_BOMBAY_HIGH_RESIDUE_12  COST                     -240  STRM_BOMBAY_HIGH_RESIDUE_12 -1
    HDT_BOMBAY_HIGH_RESIDUE_12  TSTRM_BOMBAY_HIGH_RESIDUE_12 1  HDTCAP_12                1
    BL_BOMBAY_HIGH_RESIDUE_FUELOIL_12  STRM_BOMBAY_HIGH_RESIDUE_12 -1  PBAL_FUELOIL_12          1
    BL_BOMBAY_HIGH_RESIDUE_FUELOIL_12  QUAL_FUELOIL_12          -32660
    TSLACK_BOMBAY_HIGH_RESIDUE_12  COST                     -180  TSTRM_BOMBAY_HIGH_RESIDUE_12 -1
    TBL_BOMBAY_HIGH_RESIDUE_FUELOIL_12  TSTRM_BOMBAY_HIGH_RESIDUE_12 -1  PBAL_FUELOIL_12          1
    TBL_BOMBAY_HIGH_RESIDUE_FUELOIL_12  QUAL_FUELOIL_12          -34906.4
    FSLACK_BOMBAY_HIGH_NAPHTHA_12  COST                     -180  FSTRM_BOMBAY_HIGH_NAPHTHA_12 -1
    FBL_BOMBAY_HIGH_NAPHTHA_GASOLINE_12  FSTRM_BOMBAY_HIGH_NAPHTHA_12 -1  PBAL_GASOLINE_12         1
    FBL_BOMBAY_HIGH_NAPHTHA_GASOLINE_12  QUAL_GASOLINE_12         -43.7
    FBL_BOMBAY_HIGH_NAPHTHA_JET_12  FSTRM_BOMBAY_HIGH_NAPHTHA_12 -1  PBAL_JET_12              1
    FBL_BOMBAY_HIGH_NAPHTHA_JET_12  QUAL_JET_12              -2493.7
    FSLACK_BOMBAY_HIGH_DIESEL_12  COST                     -180  FSTRM_BOMBAY_HIGH_DIESEL_12 -1
    FBL_BOMBAY_HIGH_DIESEL_DIESEL_P_12  FSTRM_BOMBAY_HIGH_DIESEL_12 -1  PBAL_DIESEL_P_12         1
    FBL_BOMBAY_HIGH_DIESEL_DIESEL_P_12  QUAL_DIESEL_P_12         -176.75
    FBL_BOMBAY_HIGH_DIESEL_FUELOIL_12  FSTRM_BOMBAY_HIGH_DIESEL_12 -1  PBAL_FUELOIL_12          1
    FBL_BOMBAY_HIGH_DIESEL_FUELOIL_12  QUAL_FUELOIL_12          -34826.75
    BUY_ARAB_LIGHT_12         COST                     -6420  CBAL_ARAB_LIGHT_12       1
    INVC_ARAB_LIGHT_12        COST                     -77.04  CBAL_ARAB_LIGHT_12       -1
    CHG_ARAB_LIGHT_12         COST                     -145  CBAL_ARAB_LIGHT_12       -1
    CHG_ARAB_LIGHT_12         CDUCAP_12                1  STRM_ARAB_LIGHT_NAPHTHA_12 0.22
    CHG_ARAB_LIGHT_12         STRM_ARAB_LIGHT_KERO_12  0.17  STRM_ARAB_LIGHT_DIESEL_12 0.23
    CHG_ARAB_LIGHT_12         STRM_ARAB_LIGHT_VGO_12   0.22  STRM_ARAB_LIGHT_RESIDUE_12 0.16
    SLACK_ARAB_LIGHT_NAPHTHA_12  COST                     -180  STRM_ARAB_LIGHT_NAPHTHA_12 -1
    HDT_ARAB_LIGHT_NAPHTHA_12  COST                     -240  STRM_ARAB_LIGHT_NAPHTHA_12 -1
    HDT_ARAB_LIGHT_NAPHTHA_12  TSTRM_ARAB_LIGHT_NAPHTHA_12 1  HDTCAP_12                1
    BL_ARAB_LIGHT_NAPHTHA_GASOLINE_12  STRM_ARAB_LIGHT_NAPHTHA_12 -1  PBAL_GASOLINE_12         1
    BL_ARAB_LIGHT_NAPHTHA_GASOLINE_12  QUAL_GASOLINE_12         330
    BL_ARAB_LIGHT_NAPHTHA_JET_12  STRM_ARAB_LIGHT_NAPHTHA_12 -1  PBAL_JET_12              1
    BL_ARAB_LIGHT_NAPHTHA_JET_12  QUAL_JET_12              -2120
    TSLACK_ARAB_LIGHT_NAPHTHA_12  COST                     -180  TSTRM_ARAB_LIGHT_NAPHTHA_12 -1
    TBL_ARAB_LIGHT_NAPHTHA_GASOLINE_12  TSTRM_ARAB_LIGHT_NAPHTHA_12 -1  PBAL_GASOLINE_12         1
    TBL_ARAB_LIGHT_NAPHTHA_GASOLINE_12  QUAL_GASOLINE_12         -34.8
    TBL_ARAB_LIGHT_NAPHTHA_JET_12  TSTRM_ARAB_LIGHT_NAPHTHA_12 -1  PBAL_JET_12              1
    TBL_ARAB_LIGHT_NAPHTHA_JET_12  QUAL_JET_12              -2484.8
    SLACK_ARAB_LIGHT_KERO_12  COST                     -180  STRM_ARAB_LIGHT_KERO_12  -1
    HDT_ARAB_LIGHT_KERO_12    COST                     -240  STRM_ARAB_LIGHT_KERO_12  -1
    HDT_ARAB_LIGHT_KERO_12    TSTRM_ARAB_LIGHT_KERO_12 1  HDTCAP_12                1
    BL_ARAB_LIGHT_KERO_GASOLINE_12  STRM_ARAB_LIGHT_KERO_12  -1  PBAL_GASOLINE_12         1
    BL_ARAB_LIGHT_KERO_GASOLINE_12  QUAL_GASOLINE_12         2800
    BL_ARAB_LIGHT_KERO_JET_12  STRM_ARAB_LIGHT_KERO_12  -1  PBAL_JET_12              1
    BL_ARAB_LIGHT_KERO_JET_12  QUAL_JET_12              350
    BL_ARAB_LIGHT_KERO_DIESEL_P_12  STRM_ARAB_LIGHT_KERO_12  -1  PBAL_DIESEL_P_12         1
    BL_ARAB_LIGHT_KERO_DIESEL_P_12  QUAL_DIESEL_P_12         2500
    TSLACK_ARAB_LIGHT_KERO_12  COST                     -180  TSTRM_ARAB_LIGHT_KERO_12 -1
    TBL_ARAB_LIGHT_KERO_GASOLINE_12  TSTRM_ARAB_LIGHT_KERO_12 -1  PBAL_GASOLINE_12         1
    TBL_ARAB_LIGHT_KERO_GASOLINE_12  QUAL_GASOLINE_12         64
    TBL_ARAB_LIGHT_KERO_JET_12  TSTRM_ARAB_LIGHT_KERO_12 -1  PBAL_JET_12              1
    TBL_ARAB_LIGHT_KERO_JET_12  QUAL_JET_12              -2386
    TBL_ARAB_LIGHT_KERO_DIESEL_P_12  TSTRM_ARAB_LIGHT_KERO_12 -1  PBAL_DIESEL_P_12         1
    TBL_ARAB_LIGHT_KERO_DIESEL_P_12  QUAL_DIESEL_P_12         -236
    SLACK_ARAB_LIGHT_DIESEL_12  COST                     -180  STRM_ARAB_LIGHT_DIESEL_12 -1
    HDT_ARAB_LIGHT_DIESEL_12  COST                     -240  STRM_ARAB_LIGHT_DIESEL_12 -1
    HDT_ARAB_LIGHT_DIESEL_12  TSTRM_ARAB_LIGHT_DIESEL_12 1  HDTCAP_12                1
    BL_ARAB_LIGHT_DIESEL_DIESEL_P_12  STRM_ARAB_LIGHT_DIESEL_12 -1  PBAL_DIESEL_P_12         1
    BL_ARAB_LIGHT_DIESEL_DIESEL_P_12  QUAL_DIESEL_P_12         10100
    BL_ARAB_LIGHT_DIESEL_FUELOIL_12  STRM_ARAB_LIGHT_DIESEL_12 -1  PBAL_FUELOIL_12          1
    BL_ARAB_LIGHT_DIESEL_FUELOIL_12  QUAL_FUELOIL_12          -24550
    TSLACK_ARAB_LIGHT_DIESEL_12  COST                     -180  TSTRM_ARAB_LIGHT_DIESEL_12 -1
    TBL_ARAB_LIGHT_DIESEL_DIESEL_P_12  TSTRM_ARAB_LIGHT_DIESEL_12 -1  PBAL_DIESEL_P_12         1
    TBL_ARAB_LIGHT_DIESEL_DIESEL_P_12  QUAL_DIESEL_P_12         68
    TBL_ARAB_LIGHT_DIESEL_FUELOIL_12  TSTRM_ARAB_LIGHT_DIESEL_12 -1  PBAL_FUELOIL_12          1
    TBL_ARAB_LIGHT_DIESEL_FUELOIL_12  QUAL_FUELOIL_12          -34582
    SLACK_ARAB_LIGHT_VGO_12   COST                     -180  STRM_ARAB_LIGHT_VGO_12   -1
    HDT_ARAB_LIGHT_VGO_12     COST                     -240  STRM_ARAB_LIGHT_VGO_12   -1
    HDT_ARAB_LIGHT_VGO_12     TSTRM_ARAB_LIGHT_VGO_12  1  HDTCAP_12                1
    FCC_ARAB_LIGHT_12         COST                     -310  STRM_ARAB_LIGHT_VGO_12   -1
    FCC_ARAB_LIGHT_12         FSTRM_ARAB_LIGHT_NAPHTHA_12 0.55  FSTRM_ARAB_LIGHT_DIESEL_12 0.25
    FCC_ARAB_LIGHT_12         FCCCAP_12                1
    BL_ARAB_LIGHT_VGO_DIESEL_P_12  STRM_ARAB_LIGHT_VGO_12   -1  PBAL_DIESEL_P_12         1
    BL_ARAB_LIGHT_VGO_DIESEL_P_12  QUAL_DIESEL_P_12         25300
    BL_ARAB_LIGHT_VGO_FUELOIL_12  STRM_ARAB_LIGHT_VGO_12   -1  PBAL_FUELOIL_12          1
    BL_ARAB_LIGHT_VGO_FUELOIL_12  QUAL_FUELOIL_12          -9350
    TSLACK_ARAB_LIGHT_VGO_12  COST                     -180  TSTRM_ARAB_LIGHT_VGO_12  -1
    TBL_ARAB_LIGHT_VGO_DIESEL_P_12  TSTRM_ARAB_LIGHT_VGO_12  -1  PBAL_DIESEL_P_12         1
    TBL_ARAB_LIGHT_VGO_DIESEL_P_12  QUAL_DIESEL_P_12         676
    TBL_ARAB_LIGHT_VGO_FUELOIL_12  TSTRM_ARAB_LIGHT_VGO_12  -1  PBAL_FUELOIL_12          1
    TBL_ARAB_LIGHT_VGO_FUELOIL_12  QUAL_FUELOIL_12          -33974
    SLACK_ARAB_LIGHT_RESIDUE_12  COST                     -180  STRM_ARAB_LIGHT_RESIDUE_12 -1
    HDT_ARAB_LIGHT_RESIDUE_12  COST                     -240  STRM_ARAB_LIGHT_RESIDUE_12 -1
    HDT_ARAB_LIGHT_RESIDUE_12  TSTRM_ARAB_LIGHT_RESIDUE_12 1  HDTCAP_12                1
    BL_ARAB_LIGHT_RESIDUE_FUELOIL_12  STRM_ARAB_LIGHT_RESIDUE_12 -1  PBAL_FUELOIL_12          1
    BL_ARAB_LIGHT_RESIDUE_FUELOIL_12  QUAL_FUELOIL_12          14400
    TSLACK_ARAB_LIGHT_RESIDUE_12  COST                     -180  TSTRM_ARAB_LIGHT_RESIDUE_12 -1
    TBL_ARAB_LIGHT_RESIDUE_FUELOIL_12  TSTRM_ARAB_LIGHT_RESIDUE_12 -1  PBAL_FUELOIL_12          1
    TBL_ARAB_LIGHT_RESIDUE_FUELOIL_12  QUAL_FUELOIL_12          -33024
    FSLACK_ARAB_LIGHT_NAPHTHA_12  COST                     -180  FSTRM_ARAB_LIGHT_NAPHTHA_12 -1
    FBL_ARAB_LIGHT_NAPHTHA_GASOLINE_12  FSTRM_ARAB_LIGHT_NAPHTHA_12 -1  PBAL_GASOLINE_12         1
    FBL_ARAB_LIGHT_NAPHTHA_GASOLINE_12  QUAL_GASOLINE_12         83
    FBL_ARAB_LIGHT_NAPHTHA_JET_12  FSTRM_ARAB_LIGHT_NAPHTHA_12 -1  PBAL_JET_12              1
    FBL_ARAB_LIGHT_NAPHTHA_JET_12  QUAL_JET_12              -2367
    FSLACK_ARAB_LIGHT_DIESEL_12  COST                     -180  FSTRM_ARAB_LIGHT_DIESEL_12 -1
    FBL_ARAB_LIGHT_DIESEL_DIESEL_P_12  FSTRM_ARAB_LIGHT_DIESEL_12 -1  PBAL_DIESEL_P_12         1
    FBL_ARAB_LIGHT_DIESEL_DIESEL_P_12  QUAL_DIESEL_P_12         3307.5
    FBL_ARAB_LIGHT_DIESEL_FUELOIL_12  FSTRM_ARAB_LIGHT_DIESEL_12 -1  PBAL_FUELOIL_12          1
    FBL_ARAB_LIGHT_DIESEL_FUELOIL_12  QUAL_FUELOIL_12          -31342.5
    BUY_ARAB_HEAVY_12         COST                     -5980  CBAL_ARAB_HEAVY_12       1
    INVC_ARAB_HEAVY_12        COST                     -71.76  CBAL_ARAB_HEAVY_12       -1
    CHG_ARAB_HEAVY_12         COST                     -145  CBAL_ARAB_HEAVY_12       -1
    CHG_ARAB_HEAVY_12         CDUCAP_12                1  STRM_ARAB_HEAVY_NAPHTHA_12 0.16
    CHG_ARAB_HEAVY_12         STRM_ARAB_HEAVY_KERO_12  0.14  STRM_ARAB_HEAVY_DIESEL_12 0.21
    CHG_ARAB_HEAVY_12         STRM_ARAB_HEAVY_VGO_12   0.25  STRM_ARAB_HEAVY_RESIDUE_12 0.24
    SLACK_ARAB_HEAVY_NAPHTHA_12  COST                     -180  STRM_ARAB_HEAVY_NAPHTHA_12 -1
    HDT_ARAB_HEAVY_NAPHTHA_12  COST                     -240  STRM_ARAB_HEAVY_NAPHTHA_12 -1
    HDT_ARAB_HEAVY_NAPHTHA_12  TSTRM_ARAB_HEAVY_NAPHTHA_12 1  HDTCAP_12                1
    BL_ARAB_HEAVY_NAPHTHA_GASOLINE_12  STRM_ARAB_HEAVY_NAPHTHA_12 -1  PBAL_GASOLINE_12         1
    BL_ARAB_HEAVY_NAPHTHA_GASOLINE_12  QUAL_GASOLINE_12         530
    BL_ARAB_HEAVY_NAPHTHA_JET_12  STRM_ARAB_HEAVY_NAPHTHA_12 -1  PBAL_JET_12              1
    BL_ARAB_HEAVY_NAPHTHA_JET_12  QUAL_JET_12              -1920
    TSLACK_ARAB_HEAVY_NAPHTHA_12  COST                     -180  TSTRM_ARAB_HEAVY_NAPHTHA_12 -1
    TBL_ARAB_HEAVY_NAPHTHA_GASOLINE_12  TSTRM_ARAB_HEAVY_NAPHTHA_12 -1  PBAL_GASOLINE_12         1
    TBL_ARAB_HEAVY_NAPHTHA_GASOLINE_12  QUAL_GASOLINE_12         -26.8
    TBL_ARAB_HEAVY_NAPHTHA_JET_12  TSTRM_ARAB_HEAVY_NAPHTHA_12 -1  PBAL_JET_12              1
    TBL_ARAB_HEAVY_NAPHTHA_JET_12  QUAL_JET_12              -2476.8
    SLACK_ARAB_HEAVY_KERO_12  COST                     -180  STRM_ARAB_HEAVY_KERO_12  -1
    HDT_ARAB_HEAVY_KERO_12    COST                     -240  STRM_ARAB_HEAVY_KERO_12  -1
    HDT_ARAB_HEAVY_KERO_12    TSTRM_ARAB_HEAVY_KERO_12 1  HDTCAP_12                1
    BL_ARAB_HEAVY_KERO_GASOLINE_12  STRM_ARAB_HEAVY_KERO_12  -1  PBAL_GASOLINE_12         1
    BL_ARAB_HEAVY_KERO_GASOLINE_12  QUAL_GASOLINE_12         4300
    BL_ARAB_HEAVY_KERO_JET_12  STRM_ARAB_HEAVY_KERO_12  -1  PBAL_JET_12              1
    BL_ARAB_HEAVY_KERO_JET_12  QUAL_JET_12              1850
    BL_ARAB_HEAVY_KERO_DIESEL_P_12  STRM_ARAB_HEAVY_KERO_12  -1  PBAL_DIESEL_P_12         1
    BL_ARAB_HEAVY_KERO_DIESEL_P_12  QUAL_DIESEL_P_12         4000
    TSLACK_ARAB_HEAVY_KERO_12  COST                     -180  TSTRM_ARAB_HEAVY_KERO_12 -1
    TBL_ARAB_HEAVY_KERO_GASOLINE_12  TSTRM_ARAB_HEAVY_KERO_12 -1  PBAL_GASOLINE_12         1
    TBL_ARAB_HEAVY_KERO_GASOLINE_12  QUAL_GASOLINE_12         124
    TBL_ARAB_HEAVY_KERO_JET_12  TSTRM_ARAB_HEAVY_KERO_12 -1  PBAL_JET_12              1
    TBL_ARAB_HEAVY_KERO_JET_12  QUAL_JET_12              -2326
    TBL_ARAB_HEAVY_KERO_DIESEL_P_12  TSTRM_ARAB_HEAVY_KERO_12 -1  PBAL_DIESEL_P_12         1
    TBL_ARAB_HEAVY_KERO_DIESEL_P_12  QUAL_DIESEL_P_12         -176
    SLACK_ARAB_HEAVY_DIESEL_12  COST                     -180  STRM_ARAB_HEAVY_DIESEL_12 -1
    HDT_ARAB_HEAVY_DIESEL_12  COST                     -240  STRM_ARAB_HEAVY_DIESEL_12 -1
    HDT_ARAB_HEAVY_DIESEL_12  TSTRM_ARAB_HEAVY_DIESEL_12 1  HDTCAP_12                1
    BL_ARAB_HEAVY_DIESEL_DIESEL_P_12  STRM_ARAB_HEAVY_DIESEL_12 -1  PBAL_DIESEL_P_12         1
    BL_ARAB_HEAVY_DIESEL_DIESEL_P_12  QUAL_DIESEL_P_12         15600
    BL_ARAB_HEAVY_DIESEL_FUELOIL_12  STRM_ARAB_HEAVY_DIESEL_12 -1  PBAL_FUELOIL_12          1
    BL_ARAB_HEAVY_DIESEL_FUELOIL_12  QUAL_FUELOIL_12          -19050
    TSLACK_ARAB_HEAVY_DIESEL_12  COST                     -180  TSTRM_ARAB_HEAVY_DIESEL_12 -1
    TBL_ARAB_HEAVY_DIESEL_DIESEL_P_12  TSTRM_ARAB_HEAVY_DIESEL_12 -1  PBAL_DIESEL_P_12         1
    TBL_ARAB_HEAVY_DIESEL_DIESEL_P_12  QUAL_DIESEL_P_12         288
    TBL_ARAB_HEAVY_DIESEL_FUELOIL_12  TSTRM_ARAB_HEAVY_DIESEL_12 -1  PBAL_FUELOIL_12          1
    TBL_ARAB_HEAVY_DIESEL_FUELOIL_12  QUAL_FUELOIL_12          -34362
    SLACK_ARAB_HEAVY_VGO_12   COST                     -180  STRM_ARAB_HEAVY_VGO_12   -1
    HDT_ARAB_HEAVY_VGO_12     COST                     -240  STRM_ARAB_HEAVY_VGO_12   -1
    HDT_ARAB_HEAVY_VGO_12     TSTRM_ARAB_HEAVY_VGO_12  1  HDTCAP_12                1
    FCC_ARAB_HEAVY_12         COST                     -310  STRM_ARAB_HEAVY_VGO_12   -1
    FCC_ARAB_HEAVY_12         FSTRM_ARAB_HEAVY_NAPHTHA_12 0.55  FSTRM_ARAB_HEAVY_DIESEL_12 0.25
    FCC_ARAB_HEAVY_12         FCCCAP_12                1
    BL_ARAB_HEAVY_VGO_DIESEL_P_12  STRM_ARAB_HEAVY_VGO_12   -1  PBAL_DIESEL_P_12         1
    BL_ARAB_HEAVY_VGO_DIESEL_P_12  QUAL_DIESEL_P_12         38800
    BL_ARAB_HEAVY_VGO_FUELOIL_12  STRM_ARAB_HEAVY_VGO_12   -1  PBAL_FUELOIL_12          1
    BL_ARAB_HEAVY_VGO_FUELOIL_12  QUAL_FUELOIL_12          4150
    TSLACK_ARAB_HEAVY_VGO_12  COST                     -180  TSTRM_ARAB_HEAVY_VGO_12  -1
    TBL_ARAB_HEAVY_VGO_DIESEL_P_12  TSTRM_ARAB_HEAVY_VGO_12  -1  PBAL_DIESEL_P_12         1
    TBL_ARAB_HEAVY_VGO_DIESEL_P_12  QUAL_DIESEL_P_12         1216
    TBL_ARAB_HEAVY_VGO_FUELOIL_12  TSTRM_ARAB_HEAVY_VGO_12  -1  PBAL_FUELOIL_12          1
    TBL_ARAB_HEAVY_VGO_FUELOIL_12  QUAL_FUELOIL_12          -33434
    SLACK_ARAB_HEAVY_RESIDUE_12  COST                     -180  STRM_ARAB_HEAVY_RESIDUE_12 -1
    HDT_ARAB_HEAVY_RESIDUE_12  COST                     -240  STRM_ARAB_HEAVY_RESIDUE_12 -1
    HDT_ARAB_HEAVY_RESIDUE_12  TSTRM_ARAB_HEAVY_RESIDUE_12 1  HDTCAP_12                1
    BL_ARAB_HEAVY_RESIDUE_FUELOIL_12  STRM_ARAB_HEAVY_RESIDUE_12 -1  PBAL_FUELOIL_12          1
    BL_ARAB_HEAVY_RESIDUE_FUELOIL_12  QUAL_FUELOIL_12          40400
    TSLACK_ARAB_HEAVY_RESIDUE_12  COST                     -180  TSTRM_ARAB_HEAVY_RESIDUE_12 -1
    TBL_ARAB_HEAVY_RESIDUE_FUELOIL_12  TSTRM_ARAB_HEAVY_RESIDUE_12 -1  PBAL_FUELOIL_12          1
    TBL_ARAB_HEAVY_RESIDUE_FUELOIL_12  QUAL_FUELOIL_12          -31984
    FSLACK_ARAB_HEAVY_NAPHTHA_12  COST                     -180  FSTRM_ARAB_HEAVY_NAPHTHA_12 -1
    FBL_ARAB_HEAVY_NAPHTHA_GASOLINE_12  FSTRM_ARAB_HEAVY_NAPHTHA_12 -1  PBAL_GASOLINE_12         1
    FBL_ARAB_HEAVY_NAPHTHA_GASOLINE_12  QUAL_GASOLINE_12         153
    FBL_ARAB_HEAVY_NAPHTHA_JET_12  FSTRM_ARAB_HEAVY_NAPHTHA_12 -1  PBAL_JET_12              1
    FBL_ARAB_HEAVY_NAPHTHA_JET_12  QUAL_JET_12              -2297
    FSLACK_ARAB_HEAVY_DIESEL_12  COST                     -180  FSTRM_ARAB_HEAVY_DIESEL_12 -1
    FBL_ARAB_HEAVY_DIESEL_DIESEL_P_12  FSTRM_ARAB_HEAVY_DIESEL_12 -1  PBAL_DIESEL_P_12         1
    FBL_ARAB_HEAVY_DIESEL_DIESEL_P_12  QUAL_DIESEL_P_12         5232.5
    FBL_ARAB_HEAVY_DIESEL_FUELOIL_12  FSTRM_ARAB_HEAVY_DIESEL_12 -1  PBAL_FUELOIL_12          1
    FBL_ARAB_HEAVY_DIESEL_FUELOIL_12  QUAL_FUELOIL_12          -29417.5
    BUY_BASRAH_12             COST                     -6100  CBAL_BASRAH_12           1
    INVC_BASRAH_12            COST                     -73.2  CBAL_BASRAH_12           -1
    CHG_BASRAH_12             COST                     -145  CBAL_BASRAH_12           -1
    CHG_BASRAH_12             CDUCAP_12                1  STRM_BASRAH_NAPHTHA_12   0.18
    CHG_BASRAH_12             STRM_BASRAH_KERO_12      0.15  STRM_BASRAH_DIESEL_12    0.22
    CHG_BASRAH_12             STRM_BASRAH_VGO_12       0.24  STRM_BASRAH_RESIDUE_12   0.21
    SLACK_BASRAH_NAPHTHA_12   COST                     -180  STRM_BASRAH_NAPHTHA_12   -1
    HDT_BASRAH_NAPHTHA_12     COST                     -240  STRM_BASRAH_NAPHTHA_12   -1
    HDT_BASRAH_NAPHTHA_12     TSTRM_BASRAH_NAPHTHA_12  1  HDTCAP_12                1
    BL_BASRAH_NAPHTHA_GASOLINE_12  STRM_BASRAH_NAPHTHA_12   -1  PBAL_GASOLINE_12         1
    BL_BASRAH_NAPHTHA_GASOLINE_12  QUAL_GASOLINE_12         440
    BL_BASRAH_NAPHTHA_JET_12  STRM_BASRAH_NAPHTHA_12   -1  PBAL_JET_12              1
    BL_BASRAH_NAPHTHA_JET_12  QUAL_JET_12              -2010
    TSLACK_BASRAH_NAPHTHA_12  COST                     -180  TSTRM_BASRAH_NAPHTHA_12  -1
    TBL_BASRAH_NAPHTHA_GASOLINE_12  TSTRM_BASRAH_NAPHTHA_12  -1  PBAL_GASOLINE_12         1
    TBL_BASRAH_NAPHTHA_GASOLINE_12  QUAL_GASOLINE_12         -30.4
    TBL_BASRAH_NAPHTHA_JET_12  TSTRM_BASRAH_NAPHTHA_12  -1  PBAL_JET_12              1
    TBL_BASRAH_NAPHTHA_JET_12  QUAL_JET_12              -2480.4
    SLACK_BASRAH_KERO_12      COST                     -180  STRM_BASRAH_KERO_12      -1
    HDT_BASRAH_KERO_12        COST                     -240  STRM_BASRAH_KERO_12      -1
    HDT_BASRAH_KERO_12        TSTRM_BASRAH_KERO_12     1  HDTCAP_12                1
    BL_BASRAH_KERO_GASOLINE_12  STRM_BASRAH_KERO_12      -1  PBAL_GASOLINE_12         1
    BL_BASRAH_KERO_GASOLINE_12  QUAL_GASOLINE_12         3625
    BL_BASRAH_KERO_JET_12     STRM_BASRAH_KERO_12      -1  PBAL_JET_12              1
    BL_BASRAH_KERO_JET_12     QUAL_JET_12              1175
    BL_BASRAH_KERO_DIESEL_P_12  STRM_BASRAH_KERO_12      -1  PBAL_DIESEL_P_12         1
    BL_BASRAH_KERO_DIESEL_P_12  QUAL_DIESEL_P_12         3325
    TSLACK_BASRAH_KERO_12     COST                     -180  TSTRM_BASRAH_KERO_12     -1
    TBL_BASRAH_KERO_GASOLINE_12  TSTRM_BASRAH_KERO_12     -1  PBAL_GASOLINE_12         1
    TBL_BASRAH_KERO_GASOLINE_12  QUAL_GASOLINE_12         97
    TBL_BASRAH_KERO_JET_12    TSTRM_BASRAH_KERO_12     -1  PBAL_JET_12              1
    TBL_BASRAH_KERO_JET_12    QUAL_JET_12              -2353
    TBL_BASRAH_KERO_DIESEL_P_12  TSTRM_BASRAH_KERO_12     -1  PBAL_DIESEL_P_12         1
    TBL_BASRAH_KERO_DIESEL_P_12  QUAL_DIESEL_P_12         -203
    SLACK_BASRAH_DIESEL_12    COST                     -180  STRM_BASRAH_DIESEL_12    -1
    HDT_BASRAH_DIESEL_12      COST                     -240  STRM_BASRAH_DIESEL_12    -1
    HDT_BASRAH_DIESEL_12      TSTRM_BASRAH_DIESEL_12   1  HDTCAP_12                1
    BL_BASRAH_DIESEL_DIESEL_P_12  STRM_BASRAH_DIESEL_12    -1  PBAL_DIESEL_P_12         1
    BL_BASRAH_DIESEL_DIESEL_P_12  QUAL_DIESEL_P_12         13125
    BL_BASRAH_DIESEL_FUELOIL_12  STRM_BASRAH_DIESEL_12    -1  PBAL_FUELOIL_12          1
    BL_BASRAH_DIESEL_FUELOIL_12  QUAL_FUELOIL_12          -21525
    TSLACK_BASRAH_DIESEL_12   COST                     -180  TSTRM_BASRAH_DIESEL_12   -1
    TBL_BASRAH_DIESEL_DIESEL_P_12  TSTRM_BASRAH_DIESEL_12   -1  PBAL_DIESEL_P_12         1
    TBL_BASRAH_DIESEL_DIESEL_P_12  QUAL_DIESEL_P_12         189
    TBL_BASRAH_DIESEL_FUELOIL_12  TSTRM_BASRAH_DIESEL_12   -1  PBAL_FUELOIL_12          1
    TBL_BASRAH_DIESEL_FUELOIL_12  QUAL_FUELOIL_12          -34461
    SLACK_BASRAH_VGO_12       COST                     -180  STRM_BASRAH_VGO_12       -1
    HDT_BASRAH_VGO_12         COST                     -240  STRM_BASRAH_VGO_12       -1
    HDT_BASRAH_VGO_12         TSTRM_BASRAH_VGO_12      1  HDTCAP_12                1
    FCC_BASRAH_12             COST                     -310  STRM_BASRAH_VGO_12       -1
    FCC_BASRAH_12             FSTRM_BASRAH_NAPHTHA_12  0.55  FSTRM_BASRAH_DIESEL_12   0.25
    FCC_BASRAH_12             FCCCAP_12                1
    BL_BASRAH_VGO_DIESEL_P_12  STRM_BASRAH_VGO_12       -1  PBAL_DIESEL_P_12         1
    BL_BASRAH_VGO_DIESEL_P_12  QUAL_DIESEL_P_12         32725
    BL_BASRAH_VGO_FUELOIL_12  STRM_BASRAH_VGO_12       -1  PBAL_FUELOIL_12          1
    BL_BASRAH_VGO_FUELOIL_12  QUAL_FUELOIL_12          -1925
    TSLACK_BASRAH_VGO_12      COST                     -180  TSTRM_BASRAH_VGO_12      -1
    TBL_BASRAH_VGO_DIESEL_P_12  TSTRM_BASRAH_VGO_12      -1  PBAL_DIESEL_P_12         1
    TBL_BASRAH_VGO_DIESEL_P_12  QUAL_DIESEL_P_12         973
    TBL_BASRAH_VGO_FUELOIL_12  TSTRM_BASRAH_VGO_12      -1  PBAL_FUELOIL_12          1
    TBL_BASRAH_VGO_FUELOIL_12  QUAL_FUELOIL_12          -33677
    SLACK_BASRAH_RESIDUE_12   COST                     -180  STRM_BASRAH_RESIDUE_12   -1
    HDT_BASRAH_RESIDUE_12     COST                     -240  STRM_BASRAH_RESIDUE_12   -1
    HDT_BASRAH_RESIDUE_12     TSTRM_BASRAH_RESIDUE_12  1  HDTCAP_12                1
    BL_BASRAH_RESIDUE_FUELOIL_12  STRM_BASRAH_RESIDUE_12   -1  PBAL_FUELOIL_12          1
    BL_BASRAH_RESIDUE_FUELOIL_12  QUAL_FUELOIL_12          28700
    TSLACK_BASRAH_RESIDUE_12  COST                     -180  TSTRM_BASRAH_RESIDUE_12  -1
    TBL_BASRAH_RESIDUE_FUELOIL_12  TSTRM_BASRAH_RESIDUE_12  -1  PBAL_FUELOIL_12          1
    TBL_BASRAH_RESIDUE_FUELOIL_12  QUAL_FUELOIL_12          -32452
    FSLACK_BASRAH_NAPHTHA_12  COST                     -180  FSTRM_BASRAH_NAPHTHA_12  -1
    FBL_BASRAH_NAPHTHA_GASOLINE_12  FSTRM_BASRAH_NAPHTHA_12  -1  PBAL_GASOLINE_12         1
    FBL_BASRAH_NAPHTHA_GASOLINE_12  QUAL_GASOLINE_12         121.5
    FBL_BASRAH_NAPHTHA_JET_12  FSTRM_BASRAH_NAPHTHA_12  -1  PBAL_JET_12              1
    FBL_BASRAH_NAPHTHA_JET_12  QUAL_JET_12              -2328.5
    FSLACK_BASRAH_DIESEL_12   COST                     -180  FSTRM_BASRAH_DIESEL_12   -1
    FBL_BASRAH_DIESEL_DIESEL_P_12  FSTRM_BASRAH_DIESEL_12   -1  PBAL_DIESEL_P_12         1
    FBL_BASRAH_DIESEL_DIESEL_P_12  QUAL_DIESEL_P_12         4366.25
    FBL_BASRAH_DIESEL_FUELOIL_12  FSTRM_BASRAH_DIESEL_12   -1  PBAL_FUELOIL_12          1
    FBL_BASRAH_DIESEL_FUELOIL_12  QUAL_FUELOIL_12          -30283.75
    BUY_URALS_12              COST                     -6260  CBAL_URALS_12            1
    INVC_URALS_12             COST                     -75.12  CBAL_URALS_12            -1
    CHG_URALS_12              COST                     -145  CBAL_URALS_12            -1
    CHG_URALS_12              CDUCAP_12                1  STRM_URALS_NAPHTHA_12    0.2
    CHG_URALS_12              STRM_URALS_KERO_12       0.16  STRM_URALS_DIESEL_12     0.24
    CHG_URALS_12              STRM_URALS_VGO_12        0.23  STRM_URALS_RESIDUE_12    0.17
    SLACK_URALS_NAPHTHA_12    COST                     -180  STRM_URALS_NAPHTHA_12    -1
    HDT_URALS_NAPHTHA_12      COST                     -240  STRM_URALS_NAPHTHA_12    -1
    HDT_URALS_NAPHTHA_12      TSTRM_URALS_NAPHTHA_12   1  HDTCAP_12                1
    BL_URALS_NAPHTHA_GASOLINE_12  STRM_URALS_NAPHTHA_12    -1  PBAL_GASOLINE_12         1
    BL_URALS_NAPHTHA_GASOLINE_12  QUAL_GASOLINE_12         226
    BL_URALS_NAPHTHA_JET_12   STRM_URALS_NAPHTHA_12    -1  PBAL_JET_12              1
    BL_URALS_NAPHTHA_JET_12   QUAL_JET_12              -2224
    TSLACK_URALS_NAPHTHA_12   COST                     -180  TSTRM_URALS_NAPHTHA_12   -1
    TBL_URALS_NAPHTHA_GASOLINE_12  TSTRM_URALS_NAPHTHA_12   -1  PBAL_GASOLINE_12         1
    TBL_URALS_NAPHTHA_GASOLINE_12  QUAL_GASOLINE_12         -38.96
    TBL_URALS_NAPHTHA_JET_12  TSTRM_URALS_NAPHTHA_12   -1  PBAL_JET_12              1
    TBL_URALS_NAPHTHA_JET_12  QUAL_JET_12              -2488.96
    SLACK_URALS_KERO_12       COST                     -180  STRM_URALS_KERO_12       -1
    HDT_URALS_KERO_12         COST                     -240  STRM_URALS_KERO_12       -1
    HDT_URALS_KERO_12         TSTRM_URALS_KERO_12      1  HDTCAP_12                1
    BL_URALS_KERO_GASOLINE_12  STRM_URALS_KERO_12       -1  PBAL_GASOLINE_12         1
    BL_URALS_KERO_GASOLINE_12  QUAL_GASOLINE_12         2020
    BL_URALS_KERO_JET_12      STRM_URALS_KERO_12       -1  PBAL_JET_12              1
    BL_URALS_KERO_JET_12      QUAL_JET_12              -430
    BL_URALS_KERO_DIESEL_P_12  STRM_URALS_KERO_12       -1  PBAL_DIESEL_P_12         1
    BL_URALS_KERO_DIESEL_P_12  QUAL_DIESEL_P_12         1720
    TSLACK_URALS_KERO_12      COST                     -180  TSTRM_URALS_KERO_12      -1
    TBL_URALS_KERO_GASOLINE_12  TSTRM_URALS_KERO_12      -1  PBAL_GASOLINE_12         1
    TBL_URALS_KERO_GASOLINE_12  QUAL_GASOLINE_12         32.8
    TBL_URALS_KERO_JET_12     TSTRM_URALS_KERO_12      -1  PBAL_JET_12              1
    TBL_URALS_KERO_JET_12     QUAL_JET_12              -2417.2
    TBL_URALS_KERO_DIESEL_P_12  TSTRM_URALS_KERO_12      -1  PBAL_DIESEL_P_12         1
    TBL_URALS_KERO_DIESEL_P_12  QUAL_DIESEL_P_12         -267.2
    SLACK_URALS_DIESEL_12     COST                     -180  STRM_URALS_DIESEL_12     -1
    HDT_URALS_DIESEL_12       COST                     -240  STRM_URALS_DIESEL_12     -1
    HDT_URALS_DIESEL_12       TSTRM_URALS_DIESEL_12    1  HDTCAP_12                1
    BL_URALS_DIESEL_DIESEL_P_12  STRM_URALS_DIESEL_12     -1  PBAL_DIESEL_P_12         1
    BL_URALS_DIESEL_DIESEL_P_12  QUAL_DIESEL_P_12         7240
    BL_URALS_DIESEL_FUELOIL_12  STRM_URALS_DIESEL_12     -1  PBAL_FUELOIL_12          1
    BL_URALS_DIESEL_FUELOIL_12  QUAL_FUELOIL_12          -27410
    TSLACK_URALS_DIESEL_12    COST                     -180  TSTRM_URALS_DIESEL_12    -1
    TBL_URALS_DIESEL_DIESEL_P_12  TSTRM_URALS_DIESEL_12    -1  PBAL_DIESEL_P_12         1
    TBL_URALS_DIESEL_DIESEL_P_12  QUAL_DIESEL_P_12         -46.4
    TBL_URALS_DIESEL_FUELOIL_12  TSTRM_URALS_DIESEL_12    -1  PBAL_FUELOIL_12          1
    TBL_URALS_DIESEL_FUELOIL_12  QUAL_FUELOIL_12          -34696.4
    SLACK_URALS_VGO_12        COST                     -180  STRM_URALS_VGO_12        -1
    HDT_URALS_VGO_12          COST                     -240  STRM_URALS_VGO_12        -1
    HDT_URALS_VGO_12          TSTRM_URALS_VGO_12       1  HDTCAP_12                1
    FCC_URALS_12              COST                     -310  STRM_URALS_VGO_12        -1
    FCC_URALS_12              FSTRM_URALS_NAPHTHA_12   0.55  FSTRM_URALS_DIESEL_12    0.25
    FCC_URALS_12              FCCCAP_12                1
    BL_URALS_VGO_DIESEL_P_12  STRM_URALS_VGO_12        -1  PBAL_DIESEL_P_12         1
    BL_URALS_VGO_DIESEL_P_12  QUAL_DIESEL_P_12         18280
    BL_URALS_VGO_FUELOIL_12   STRM_URALS_VGO_12        -1  PBAL_FUELOIL_12          1
    BL_URALS_VGO_FUELOIL_12   QUAL_FUELOIL_12          -16370
    TSLACK_URALS_VGO_12       COST                     -180  TSTRM_URALS_VGO_12       -1
    TBL_URALS_VGO_DIESEL_P_12  TSTRM_URALS_VGO_12       -1  PBAL_DIESEL_P_12         1
    TBL_URALS_VGO_DIESEL_P_12  QUAL_DIESEL_P_12         395.2
    TBL_URALS_VGO_FUELOIL_12  TSTRM_URALS_VGO_12       -1  PBAL_FUELOIL_12          1
    TBL_URALS_VGO_FUELOIL_12  QUAL_FUELOIL_12          -34254.8
    SLACK_URALS_RESIDUE_12    COST                     -180  STRM_URALS_RESIDUE_12    -1
    HDT_URALS_RESIDUE_12      COST                     -240  STRM_URALS_RESIDUE_12    -1
    HDT_URALS_RESIDUE_12      TSTRM_URALS_RESIDUE_12   1  HDTCAP_12                1
    BL_URALS_RESIDUE_FUELOIL_12  STRM_URALS_RESIDUE_12    -1  PBAL_FUELOIL_12          1
    BL_URALS_RESIDUE_FUELOIL_12  QUAL_FUELOIL_12          880
    TSLACK_URALS_RESIDUE_12   COST                     -180  TSTRM_URALS_RESIDUE_12   -1
    TBL_URALS_RESIDUE_FUELOIL_12  TSTRM_URALS_RESIDUE_12   -1  PBAL_FUELOIL_12          1
    TBL_URALS_RESIDUE_FUELOIL_12  QUAL_FUELOIL_12          -33564.8
    FSLACK_URALS_NAPHTHA_12   COST                     -180  FSTRM_URALS_NAPHTHA_12   -1
    FBL_URALS_NAPHTHA_GASOLINE_12  FSTRM_URALS_NAPHTHA_12   -1  PBAL_GASOLINE_12         1
    FBL_URALS_NAPHTHA_GASOLINE_12  QUAL_GASOLINE_12         46.6
    FBL_URALS_NAPHTHA_JET_12  FSTRM_URALS_NAPHTHA_12   -1  PBAL_JET_12              1
    FBL_URALS_NAPHTHA_JET_12  QUAL_JET_12              -2403.4
    FSLACK_URALS_DIESEL_12    COST                     -180  FSTRM_URALS_DIESEL_12    -1
    FBL_URALS_DIESEL_DIESEL_P_12  FSTRM_URALS_DIESEL_12    -1  PBAL_DIESEL_P_12         1
    FBL_URALS_DIESEL_DIESEL_P_12  QUAL_DIESEL_P_12         2306.5
    FBL_URALS_DIESEL_FUELOIL_12  FSTRM_URALS_DIESEL_12    -1  PBAL_FUELOIL_12          1
    FBL_URALS_DIESEL_FUELOIL_12  QUAL_FUELOIL_12          -32343.5
    BUY_MURBAN_12             COST                     -6980  CBAL_MURBAN_12           1
    INVC_MURBAN_12            COST                     -83.76  CBAL_MURBAN_12           -1
    CHG_MURBAN_12             COST                     -145  CBAL_MURBAN_12           -1
    CHG_MURBAN_12             CDUCAP_12                1  STRM_MURBAN_NAPHTHA_12   0.28
    CHG_MURBAN_12             STRM_MURBAN_KERO_12      0.19  STRM_MURBAN_DIESEL_12    0.23
    CHG_MURBAN_12             STRM_MURBAN_VGO_12       0.19  STRM_MURBAN_RESIDUE_12   0.11
    SLACK_MURBAN_NAPHTHA_12   COST                     -180  STRM_MURBAN_NAPHTHA_12   -1
    HDT_MURBAN_NAPHTHA_12     COST                     -240  STRM_MURBAN_NAPHTHA_12   -1
    HDT_MURBAN_NAPHTHA_12     TSTRM_MURBAN_NAPHTHA_12  1  HDTCAP_12                1
    BL_MURBAN_NAPHTHA_GASOLINE_12  STRM_MURBAN_NAPHTHA_12   -1  PBAL_GASOLINE_12         1
    BL_MURBAN_NAPHTHA_GASOLINE_12  QUAL_GASOLINE_12         98
    BL_MURBAN_NAPHTHA_JET_12  STRM_MURBAN_NAPHTHA_12   -1  PBAL_JET_12              1
    BL_MURBAN_NAPHTHA_JET_12  QUAL_JET_12              -2352
    TSLACK_MURBAN_NAPHTHA_12  COST                     -180  TSTRM_MURBAN_NAPHTHA_12  -1
    TBL_MURBAN_NAPHTHA_GASOLINE_12  TSTRM_MURBAN_NAPHTHA_12  -1  PBAL_GASOLINE_12         1
    TBL_MURBAN_NAPHTHA_GASOLINE_12  QUAL_GASOLINE_12         -44.08
    TBL_MURBAN_NAPHTHA_JET_12  TSTRM_MURBAN_NAPHTHA_12  -1  PBAL_JET_12              1
    TBL_MURBAN_NAPHTHA_JET_12  QUAL_JET_12              -2494.08
    SLACK_MURBAN_KERO_12      COST                     -180  STRM_MURBAN_KERO_12      -1
    HDT_MURBAN_KERO_12        COST                     -240  STRM_MURBAN_KERO_12      -1
    HDT_MURBAN_KERO_12        TSTRM_MURBAN_KERO_12     1  HDTCAP_12                1
    BL_MURBAN_KERO_GASOLINE_12  STRM_MURBAN_KERO_12      -1  PBAL_GASOLINE_12         1
    BL_MURBAN_KERO_GASOLINE_12  QUAL_GASOLINE_12         1060
    BL_MURBAN_KERO_JET_12     STRM_MURBAN_KERO_12      -1  PBAL_JET_12              1
    BL_MURBAN_KERO_JET_12     QUAL_JET_12              -1390
    BL_MURBAN_KERO_DIESEL_P_12  STRM_MURBAN_KERO_12      -1  PBAL_DIESEL_P_12         1
    BL_MURBAN_KERO_DIESEL_P_12  QUAL_DIESEL_P_12         760
    TSLACK_MURBAN_KERO_12     COST                     -180  TSTRM_MURBAN_KERO_12     -1
    TBL_MURBAN_KERO_GASOLINE_12  TSTRM_MURBAN_KERO_12     -1  PBAL_GASOLINE_12         1
    TBL_MURBAN_KERO_GASOLINE_12  QUAL_GASOLINE_12         -5.6
    TBL_MURBAN_KERO_JET_12    TSTRM_MURBAN_KERO_12     -1  PBAL_JET_12              1
    TBL_MURBAN_KERO_JET_12    QUAL_JET_12              -2455.6
    TBL_MURBAN_KERO_DIESEL_P_12  TSTRM_MURBAN_KERO_12     -1  PBAL_DIESEL_P_12         1
    TBL_MURBAN_KERO_DIESEL_P_12  QUAL_DIESEL_P_12         -305.6
    SLACK_MURBAN_DIESEL_12    COST                     -180  STRM_MURBAN_DIESEL_12    -1
    HDT_MURBAN_DIESEL_12      COST                     -240  STRM_MURBAN_DIESEL_12    -1
    HDT_MURBAN_DIESEL_12      TSTRM_MURBAN_DIESEL_12   1  HDTCAP_12                1
    BL_MURBAN_DIESEL_DIESEL_P_12  STRM_MURBAN_DIESEL_12    -1  PBAL_DIESEL_P_12         1
    BL_MURBAN_DIESEL_DIESEL_P_12  QUAL_DIESEL_P_12         3720
    BL_MURBAN_DIESEL_FUELOIL_12  STRM_MURBAN_DIESEL_12    -1  PBAL_FUELOIL_12          1
    BL_MURBAN_DIESEL_FUELOIL_12  QUAL_FUELOIL_12          -30930
    TSLACK_MURBAN_DIESEL_12   COST                     -180  TSTRM_MURBAN_DIESEL_12   -1
    TBL_MURBAN_DIESEL_DIESEL_P_12  TSTRM_MURBAN_DIESEL_12   -1  PBAL_DIESEL_P_12         1
    TBL_MURBAN_DIESEL_DIESEL_P_12  QUAL_DIESEL_P_12         -187.2
    TBL_MURBAN_DIESEL_FUELOIL_12  TSTRM_MURBAN_DIESEL_12   -1  PBAL_FUELOIL_12          1
    TBL_MURBAN_DIESEL_FUELOIL_12  QUAL_FUELOIL_12          -34837.2
    SLACK_MURBAN_VGO_12       COST                     -180  STRM_MURBAN_VGO_12       -1
    HDT_MURBAN_VGO_12         COST                     -240  STRM_MURBAN_VGO_12       -1
    HDT_MURBAN_VGO_12         TSTRM_MURBAN_VGO_12      1  HDTCAP_12                1
    FCC_MURBAN_12             COST                     -310  STRM_MURBAN_VGO_12       -1
    FCC_MURBAN_12             FSTRM_MURBAN_NAPHTHA_12  0.55  FSTRM_MURBAN_DIESEL_12   0.25
    FCC_MURBAN_12             FCCCAP_12                1
    BL_MURBAN_VGO_DIESEL_P_12  STRM_MURBAN_VGO_12       -1  PBAL_DIESEL_P_12         1
    BL_MURBAN_VGO_DIESEL_P_12  QUAL_DIESEL_P_12         9640
    BL_MURBAN_VGO_FUELOIL_12  STRM_MURBAN_VGO_12       -1  PBAL_FUELOIL_12          1
    BL_MURBAN_VGO_FUELOIL_12  QUAL_FUELOIL_12          -25010
    TSLACK_MURBAN_VGO_12      COST                     -180  TSTRM_MURBAN_VGO_12      -1
    TBL_MURBAN_VGO_DIESEL_P_12  TSTRM_MURBAN_VGO_12      -1  PBAL_DIESEL_P_12         1
    TBL_MURBAN_VGO_DIESEL_P_12  QUAL_DIESEL_P_12         49.6
    TBL_MURBAN_VGO_FUELOIL_12  TSTRM_MURBAN_VGO_12      -1  PBAL_FUELOIL_12          1
    TBL_MURBAN_VGO_FUELOIL_12  QUAL_FUELOIL_12          -34600.4
    SLACK_MURBAN_RESIDUE_12   COST                     -180  STRM_MURBAN_RESIDUE_12   -1
    HDT_MURBAN_RESIDUE_12     COST                     -240  STRM_MURBAN_RESIDUE_12   -1
    HDT_MURBAN_RESIDUE_12     TSTRM_MURBAN_RESIDUE_12  1  HDTCAP_12                1
    BL_MURBAN_RESIDUE_FUELOIL_12  STRM_MURBAN_RESIDUE_12   -1  PBAL_FUELOIL_12          1
    BL_MURBAN_RESIDUE_FUELOIL_12  QUAL_FUELOIL_12          -15760
    TSLACK_MURBAN_RESIDUE_12  COST                     -180  TSTRM_MURBAN_RESIDUE_12  -1
    TBL_MURBAN_RESIDUE_FUELOIL_12  TSTRM_MURBAN_RESIDUE_12  -1  PBAL_FUELOIL_12          1
    TBL_MURBAN_RESIDUE_FUELOIL_12  QUAL_FUELOIL_12          -34230.4
    FSLACK_MURBAN_NAPHTHA_12  COST                     -180  FSTRM_MURBAN_NAPHTHA_12  -1
    FBL_MURBAN_NAPHTHA_GASOLINE_12  FSTRM_MURBAN_NAPHTHA_12  -1  PBAL_GASOLINE_12         1
    FBL_MURBAN_NAPHTHA_GASOLINE_12  QUAL_GASOLINE_12         1.8
    FBL_MURBAN_NAPHTHA_JET_12  FSTRM_MURBAN_NAPHTHA_12  -1  PBAL_JET_12              1
    FBL_MURBAN_NAPHTHA_JET_12  QUAL_JET_12              -2448.2
    FSLACK_MURBAN_DIESEL_12   COST                     -180  FSTRM_MURBAN_DIESEL_12   -1
    FBL_MURBAN_DIESEL_DIESEL_P_12  FSTRM_MURBAN_DIESEL_12   -1  PBAL_DIESEL_P_12         1
    FBL_MURBAN_DIESEL_DIESEL_P_12  QUAL_DIESEL_P_12         1074.5
    FBL_MURBAN_DIESEL_FUELOIL_12  FSTRM_MURBAN_DIESEL_12   -1  PBAL_FUELOIL_12          1
    FBL_MURBAN_DIESEL_FUELOIL_12  QUAL_FUELOIL_12          -33575.5
    BUY_ES_SIDER_12           COST                     -6540  CBAL_ES_SIDER_12         1
    INVC_ES_SIDER_12          COST                     -78.48  CBAL_ES_SIDER_12         -1
    CHG_ES_SIDER_12           COST                     -145  CBAL_ES_SIDER_12         -1
    CHG_ES_SIDER_12           CDUCAP_12                1  STRM_ES_SIDER_NAPHTHA_12 0.25
    CHG_ES_SIDER_12           STRM_ES_SIDER_KERO_12    0.18  STRM_ES_SIDER_DIESEL_12  0.25
    CHG_ES_SIDER_12           STRM_ES_SIDER_VGO_12     0.2  STRM_ES_SIDER_RESIDUE_12 0.12
    SLACK_ES_SIDER_NAPHTHA_12  COST                     -180  STRM_ES_SIDER_NAPHTHA_12 -1
    HDT_ES_SIDER_NAPHTHA_12   COST                     -240  STRM_ES_SIDER_NAPHTHA_12 -1
    HDT_ES_SIDER_NAPHTHA_12   TSTRM_ES_SIDER_NAPHTHA_12 1  HDTCAP_12                1
    BL_ES_SIDER_NAPHTHA_GASOLINE_12  STRM_ES_SIDER_NAPHTHA_12 -1  PBAL_GASOLINE_12         1
    BL_ES_SIDER_NAPHTHA_GASOLINE_12  QUAL_GASOLINE_12         32
    BL_ES_SIDER_NAPHTHA_JET_12  STRM_ES_SIDER_NAPHTHA_12 -1  PBAL_JET_12              1
    BL_ES_SIDER_NAPHTHA_JET_12  QUAL_JET_12              -2418
    TSLACK_ES_SIDER_NAPHTHA_12  COST                     -180  TSTRM_ES_SIDER_NAPHTHA_12 -1
    TBL_ES_SIDER_NAPHTHA_GASOLINE_12  TSTRM_ES_SIDER_NAPHTHA_12 -1  PBAL_GASOLINE_12         1
    TBL_ES_SIDER_NAPHTHA_GASOLINE_12  QUAL_GASOLINE_12         -46.72
    TBL_ES_SIDER_NAPHTHA_JET_12  TSTRM_ES_SIDER_NAPHTHA_12 -1  PBAL_JET_12              1
    TBL_ES_SIDER_NAPHTHA_JET_12  QUAL_JET_12              -2496.72
    SLACK_ES_SIDER_KERO_12    COST                     -180  STRM_ES_SIDER_KERO_12    -1
    HDT_ES_SIDER_KERO_12      COST                     -240  STRM_ES_SIDER_KERO_12    -1
    HDT_ES_SIDER_KERO_12      TSTRM_ES_SIDER_KERO_12   1  HDTCAP_12                1
    BL_ES_SIDER_KERO_GASOLINE_12  STRM_ES_SIDER_KERO_12    -1  PBAL_GASOLINE_12         1
    BL_ES_SIDER_KERO_GASOLINE_12  QUAL_GASOLINE_12         565
    BL_ES_SIDER_KERO_JET_12   STRM_ES_SIDER_KERO_12    -1  PBAL_JET_12              1
    BL_ES_SIDER_KERO_JET_12   QUAL_JET_12              -1885
    BL_ES_SIDER_KERO_DIESEL_P_12  STRM_ES_SIDER_KERO_12    -1  PBAL_DIESEL_P_12         1
    BL_ES_SIDER_KERO_DIESEL_P_12  QUAL_DIESEL_P_12         265
    TSLACK_ES_SIDER_KERO_12   COST                     -180  TSTRM_ES_SIDER_KERO_12   -1
    TBL_ES_SIDER_KERO_GASOLINE_12  TSTRM_ES_SIDER_KERO_12   -1  PBAL_GASOLINE_12         1
    TBL_ES_SIDER_KERO_GASOLINE_12  QUAL_GASOLINE_12         -25.4
    TBL_ES_SIDER_KERO_JET_12  TSTRM_ES_SIDER_KERO_12   -1  PBAL_JET_12              1
    TBL_ES_SIDER_KERO_JET_12  QUAL_JET_12              -2475.4
    TBL_ES_SIDER_KERO_DIESEL_P_12  TSTRM_ES_SIDER_KERO_12   -1  PBAL_DIESEL_P_12         1
    TBL_ES_SIDER_KERO_DIESEL_P_12  QUAL_DIESEL_P_12         -325.4
    SLACK_ES_SIDER_DIESEL_12  COST                     -180  STRM_ES_SIDER_DIESEL_12  -1
    HDT_ES_SIDER_DIESEL_12    COST                     -240  STRM_ES_SIDER_DIESEL_12  -1
    HDT_ES_SIDER_DIESEL_12    TSTRM_ES_SIDER_DIESEL_12 1  HDTCAP_12                1
    BL_ES_SIDER_DIESEL_DIESEL_P_12  STRM_ES_SIDER_DIESEL_12  -1  PBAL_DIESEL_P_12         1
    BL_ES_SIDER_DIESEL_DIESEL_P_12  QUAL_DIESEL_P_12         1905
    BL_ES_SIDER_DIESEL_FUELOIL_12  STRM_ES_SIDER_DIESEL_12  -1  PBAL_FUELOIL_12          1
    BL_ES_SIDER_DIESEL_FUELOIL_12  QUAL_FUELOIL_12          -32745
    TSLACK_ES_SIDER_DIESEL_12  COST                     -180  TSTRM_ES_SIDER_DIESEL_12 -1
    TBL_ES_SIDER_DIESEL_DIESEL_P_12  TSTRM_ES_SIDER_DIESEL_12 -1  PBAL_DIESEL_P_12         1
    TBL_ES_SIDER_DIESEL_DIESEL_P_12  QUAL_DIESEL_P_12         -259.8
    TBL_ES_SIDER_DIESEL_FUELOIL_12  TSTRM_ES_SIDER_DIESEL_12 -1  PBAL_FUELOIL_12          1
    TBL_ES_SIDER_DIESEL_FUELOIL_12  QUAL_FUELOIL_12          -34909.8
    SLACK_ES_SIDER_VGO_12     COST                     -180  STRM_ES_SIDER_VGO_12     -1
    HDT_ES_SIDER_VGO_12       COST                     -240  STRM_ES_SIDER_VGO_12     -1
    HDT_ES_SIDER_VGO_12       TSTRM_ES_SIDER_VGO_12    1  HDTCAP_12                1
    FCC_ES_SIDER_12           COST                     -310  STRM_ES_SIDER_VGO_12     -1
    FCC_ES_SIDER_12           FSTRM_ES_SIDER_NAPHTHA_12 0.55  FSTRM_ES_SIDER_DIESEL_12 0.25
    FCC_ES_SIDER_12           FCCCAP_12                1
    BL_ES_SIDER_VGO_DIESEL_P_12  STRM_ES_SIDER_VGO_12     -1  PBAL_DIESEL_P_12         1
    BL_ES_SIDER_VGO_DIESEL_P_12  QUAL_DIESEL_P_12         5185
    BL_ES_SIDER_VGO_FUELOIL_12  STRM_ES_SIDER_VGO_12     -1  PBAL_FUELOIL_12          1
    BL_ES_SIDER_VGO_FUELOIL_12  QUAL_FUELOIL_12          -29465
    TSLACK_ES_SIDER_VGO_12    COST                     -180  TSTRM_ES_SIDER_VGO_12    -1
    TBL_ES_SIDER_VGO_DIESEL_P_12  TSTRM_ES_SIDER_VGO_12    -1  PBAL_DIESEL_P_12         1
    TBL_ES_SIDER_VGO_DIESEL_P_12  QUAL_DIESEL_P_12         -128.6
    TBL_ES_SIDER_VGO_FUELOIL_12  TSTRM_ES_SIDER_VGO_12    -1  PBAL_FUELOIL_12          1
    TBL_ES_SIDER_VGO_FUELOIL_12  QUAL_FUELOIL_12          -34778.6
    SLACK_ES_SIDER_RESIDUE_12  COST                     -180  STRM_ES_SIDER_RESIDUE_12 -1
    HDT_ES_SIDER_RESIDUE_12   COST                     -240  STRM_ES_SIDER_RESIDUE_12 -1
    HDT_ES_SIDER_RESIDUE_12   TSTRM_ES_SIDER_RESIDUE_12 1  HDTCAP_12                1
    BL_ES_SIDER_RESIDUE_FUELOIL_12  STRM_ES_SIDER_RESIDUE_12 -1  PBAL_FUELOIL_12          1
    BL_ES_SIDER_RESIDUE_FUELOIL_12  QUAL_FUELOIL_12          -24340
    TSLACK_ES_SIDER_RESIDUE_12  COST                     -180  TSTRM_ES_SIDER_RESIDUE_12 -1
    TBL_ES_SIDER_RESIDUE_FUELOIL_12  TSTRM_ES_SIDER_RESIDUE_12 -1  PBAL_FUELOIL_12          1
    TBL_ES_SIDER_RESIDUE_FUELOIL_12  QUAL_FUELOIL_12          -34573.6
    FSLACK_ES_SIDER_NAPHTHA_12  COST                     -180  FSTRM_ES_SIDER_NAPHTHA_12 -1
    FBL_ES_SIDER_NAPHTHA_GASOLINE_12  FSTRM_ES_SIDER_NAPHTHA_12 -1  PBAL_GASOLINE_12         1
    FBL_ES_SIDER_NAPHTHA_GASOLINE_12  QUAL_GASOLINE_12         -21.3
    FBL_ES_SIDER_NAPHTHA_JET_12  FSTRM_ES_SIDER_NAPHTHA_12 -1  PBAL_JET_12              1
    FBL_ES_SIDER_NAPHTHA_JET_12  QUAL_JET_12              -2471.3
    FSLACK_ES_SIDER_DIESEL_12  COST                     -180  FSTRM_ES_SIDER_DIESEL_12 -1
    FBL_ES_SIDER_DIESEL_DIESEL_P_12  FSTRM_ES_SIDER_DIESEL_12 -1  PBAL_DIESEL_P_12         1
    FBL_ES_SIDER_DIESEL_DIESEL_P_12  QUAL_DIESEL_P_12         439.25
    FBL_ES_SIDER_DIESEL_FUELOIL_12  FSTRM_ES_SIDER_DIESEL_12 -1  PBAL_FUELOIL_12          1
    FBL_ES_SIDER_DIESEL_FUELOIL_12  QUAL_FUELOIL_12          -34210.75
    BUY_QUA_IBOE_12           COST                     -6890  CBAL_QUA_IBOE_12         1
    INVC_QUA_IBOE_12          COST                     -82.68  CBAL_QUA_IBOE_12         -1
    CHG_QUA_IBOE_12           COST                     -145  CBAL_QUA_IBOE_12         -1
    CHG_QUA_IBOE_12           CDUCAP_12                1  STRM_QUA_IBOE_NAPHTHA_12 0.27
    CHG_QUA_IBOE_12           STRM_QUA_IBOE_KERO_12    0.2  STRM_QUA_IBOE_DIESEL_12  0.25
    CHG_QUA_IBOE_12           STRM_QUA_IBOE_VGO_12     0.18  STRM_QUA_IBOE_RESIDUE_12 0.1
    SLACK_QUA_IBOE_NAPHTHA_12  COST                     -180  STRM_QUA_IBOE_NAPHTHA_12 -1
    HDT_QUA_IBOE_NAPHTHA_12   COST                     -240  STRM_QUA_IBOE_NAPHTHA_12 -1
    HDT_QUA_IBOE_NAPHTHA_12   TSTRM_QUA_IBOE_NAPHTHA_12 1  HDTCAP_12                1
    BL_QUA_IBOE_NAPHTHA_GASOLINE_12  STRM_QUA_IBOE_NAPHTHA_12 -1  PBAL_GASOLINE_12         1
    BL_QUA_IBOE_NAPHTHA_GASOLINE_12  QUAL_GASOLINE_12         -24
    BL_QUA_IBOE_NAPHTHA_JET_12  STRM_QUA_IBOE_NAPHTHA_12 -1  PBAL_JET_12              1
    BL_QUA_IBOE_NAPHTHA_JET_12  QUAL_JET_12              -2474
    TSLACK_QUA_IBOE_NAPHTHA_12  COST                     -180  TSTRM_QUA_IBOE_NAPHTHA_12 -1
    TBL_QUA_IBOE_NAPHTHA_GASOLINE_12  TSTRM_QUA_IBOE_NAPHTHA_12 -1  PBAL_GASOLINE_12         1
    TBL_QUA_IBOE_NAPHTHA_GASOLINE_12  QUAL_GASOLINE_12         -48.96
    TBL_QUA_IBOE_NAPHTHA_JET_12  TSTRM_QUA_IBOE_NAPHTHA_12 -1  PBAL_JET_12              1
    TBL_QUA_IBOE_NAPHTHA_JET_12  QUAL_JET_12              -2498.96
    SLACK_QUA_IBOE_KERO_12    COST                     -180  STRM_QUA_IBOE_KERO_12    -1
    HDT_QUA_IBOE_KERO_12      COST                     -240  STRM_QUA_IBOE_KERO_12    -1
    HDT_QUA_IBOE_KERO_12      TSTRM_QUA_IBOE_KERO_12   1  HDTCAP_12                1
    BL_QUA_IBOE_KERO_GASOLINE_12  STRM_QUA_IBOE_KERO_12    -1  PBAL_GASOLINE_12         1
    BL_QUA_IBOE_KERO_GASOLINE_12  QUAL_GASOLINE_12         145
    BL_QUA_IBOE_KERO_JET_12   STRM_QUA_IBOE_KERO_12    -1  PBAL_JET_12              1
    BL_QUA_IBOE_KERO_JET_12   QUAL_JET_12              -2305
    BL_QUA_IBOE_KERO_DIESEL_P_12  STRM_QUA_IBOE_KERO_12    -1  PBAL_DIESEL_P_12         1
    BL_QUA_IBOE_KERO_DIESEL_P_12  QUAL_DIESEL_P_12         -155
    TSLACK_QUA_IBOE_KERO_12   COST                     -180  TSTRM_QUA_IBOE_KERO_12   -1
    TBL_QUA_IBOE_KERO_GASOLINE_12  TSTRM_QUA_IBOE_KERO_12   -1  PBAL_GASOLINE_12         1
    TBL_QUA_IBOE_KERO_GASOLINE_12  QUAL_GASOLINE_12         -42.2
    TBL_QUA_IBOE_KERO_JET_12  TSTRM_QUA_IBOE_KERO_12   -1  PBAL_JET_12              1
    TBL_QUA_IBOE_KERO_JET_12  QUAL_JET_12              -2492.2
    TBL_QUA_IBOE_KERO_DIESEL_P_12  TSTRM_QUA_IBOE_KERO_12   -1  PBAL_DIESEL_P_12         1
    TBL_QUA_IBOE_KERO_DIESEL_P_12  QUAL_DIESEL_P_12         -342.2
    SLACK_QUA_IBOE_DIESEL_12  COST                     -180  STRM_QUA_IBOE_DIESEL_12  -1
    HDT_QUA_IBOE_DIESEL_12    COST                     -240  STRM_QUA_IBOE_DIESEL_12  -1
    HDT_QUA_IBOE_DIESEL_12    TSTRM_QUA_IBOE_DIESEL_12 1  HDTCAP_12                1
    BL_QUA_IBOE_DIESEL_DIESEL_P_12  STRM_QUA_IBOE_DIESEL_12  -1  PBAL_DIESEL_P_12         1
    BL_QUA_IBOE_DIESEL_DIESEL_P_12  QUAL_DIESEL_P_12         365
    BL_QUA_IBOE_DIESEL_FUELOIL_12  STRM_QUA_IBOE_DIESEL_12  -1  PBAL_FUELOIL_12          1
    BL_QUA_IBOE_DIESEL_FUELOIL_12  QUAL_FUELOIL_12          -34285
    TSLACK_QUA_IBOE_DIESEL_12  COST                     -180  TSTRM_QUA_IBOE_DIESEL_12 -1
    TBL_QUA_IBOE_DIESEL_DIESEL_P_12  TSTRM_QUA_IBOE_DIESEL_12 -1  PBAL_DIESEL_P_12         1
    TBL_QUA_IBOE_DIESEL_DIESEL_P_12  QUAL_DIESEL_P_12         -321.4
    TBL_QUA_IBOE_DIESEL_FUELOIL_12  TSTRM_QUA_IBOE_DIESEL_12 -1  PBAL_FUELOIL_12          1
    TBL_QUA_IBOE_DIESEL_FUELOIL_12  QUAL_FUELOIL_12          -34971.4
    SLACK_QUA_IBOE_VGO_12     COST                     -180  STRM_QUA_IBOE_VGO_12     -1
    HDT_QUA_IBOE_VGO_12       COST                     -240  STRM_QUA_IBOE_VGO_12     -1
    HDT_QUA_IBOE_VGO_12       TSTRM_QUA_IBOE_VGO_12    1  HDTCAP_12                1
    FCC_QUA_IBOE_12           COST                     -310  STRM_QUA_IBOE_VGO_12     -1
    FCC_QUA_IBOE_12           FSTRM_QUA_IBOE_NAPHTHA_12 0.55  FSTRM_QUA_IBOE_DIESEL_12 0.25
    FCC_QUA_IBOE_12           FCCCAP_12                1
    BL_QUA_IBOE_VGO_DIESEL_P_12  STRM_QUA_IBOE_VGO_12     -1  PBAL_DIESEL_P_12         1
    BL_QUA_IBOE_VGO_DIESEL_P_12  QUAL_DIESEL_P_12         1405
    BL_QUA_IBOE_VGO_FUELOIL_12  STRM_QUA_IBOE_VGO_12     -1  PBAL_FUELOIL_12          1
    BL_QUA_IBOE_VGO_FUELOIL_12  QUAL_FUELOIL_12          -33245
    TSLACK_QUA_IBOE_VGO_12    COST                     -180  TSTRM_QUA_IBOE_VGO_12    -1
    TBL_QUA_IBOE_VGO_DIESEL_P_12  TSTRM_QUA_IBOE_VGO_12    -1  PBAL_DIESEL_P_12         1
    TBL_QUA_IBOE_VGO_DIESEL_P_12  QUAL_DIESEL_P_12         -279.8
    TBL_QUA_IBOE_VGO_FUELOIL_12  TSTRM_QUA_IBOE_VGO_12    -1  PBAL_FUELOIL_12          1
    TBL_QUA_IBOE_VGO_FUELOIL_12  QUAL_FUELOIL_12          -34929.8
    SLACK_QUA_IBOE_RESIDUE_12  COST                     -180  STRM_QUA_IBOE_RESIDUE_12 -1
    HDT_QUA_IBOE_RESIDUE_12   COST                     -240  STRM_QUA_IBOE_RESIDUE_12 -1
    HDT_QUA_IBOE_RESIDUE_12   TSTRM_QUA_IBOE_RESIDUE_12 1  HDTCAP_12                1
    BL_QUA_IBOE_RESIDUE_FUELOIL_12  STRM_QUA_IBOE_RESIDUE_12 -1  PBAL_FUELOIL_12          1
    BL_QUA_IBOE_RESIDUE_FUELOIL_12  QUAL_FUELOIL_12          -31620
    TSLACK_QUA_IBOE_RESIDUE_12  COST                     -180  TSTRM_QUA_IBOE_RESIDUE_12 -1
    TBL_QUA_IBOE_RESIDUE_FUELOIL_12  TSTRM_QUA_IBOE_RESIDUE_12 -1  PBAL_FUELOIL_12          1
    TBL_QUA_IBOE_RESIDUE_FUELOIL_12  QUAL_FUELOIL_12          -34864.8
    FSLACK_QUA_IBOE_NAPHTHA_12  COST                     -180  FSTRM_QUA_IBOE_NAPHTHA_12 -1
    FBL_QUA_IBOE_NAPHTHA_GASOLINE_12  FSTRM_QUA_IBOE_NAPHTHA_12 -1  PBAL_GASOLINE_12         1
    FBL_QUA_IBOE_NAPHTHA_GASOLINE_12  QUAL_GASOLINE_12         -40.9
    FBL_QUA_IBOE_NAPHTHA_JET_12  FSTRM_QUA_IBOE_NAPHTHA_12 -1  PBAL_JET_12              1
    FBL_QUA_IBOE_NAPHTHA_JET_12  QUAL_JET_12              -2490.9
    FSLACK_QUA_IBOE_DIESEL_12  COST                     -180  FSTRM_QUA_IBOE_DIESEL_12 -1
    FBL_QUA_IBOE_DIESEL_DIESEL_P_12  FSTRM_QUA_IBOE_DIESEL_12 -1  PBAL_DIESEL_P_12         1
    FBL_QUA_IBOE_DIESEL_DIESEL_P_12  QUAL_DIESEL_P_12         -99.75
    FBL_QUA_IBOE_DIESEL_FUELOIL_12  FSTRM_QUA_IBOE_DIESEL_12 -1  PBAL_FUELOIL_12          1
    FBL_QUA_IBOE_DIESEL_FUELOIL_12  QUAL_FUELOIL_12          -34749.75
    SELL_GASOLINE_12          COST                     9250  PBAL_GASOLINE_12         -1
    SELL_JET_12               COST                     8900  PBAL_JET_12              -1
    SELL_DIESEL_P_12          COST                     8600  PBAL_DIESEL_P_12         -1
    SELL_FUELOIL_12           COST                     4900  PBAL_FUELOIL_12          -1
RHS
    RHS       CDUCAP_1                 1500000
    RHS       FCCCAP_1                 450000
    RHS       HDTCAP_1                 675000
    RHS       CDUCAP_2                 1500000
    RHS       FCCCAP_2                 450000
    RHS       HDTCAP_2                 675000
    RHS       CDUCAP_3                 1500000
    RHS       FCCCAP_3                 450000
    RHS       HDTCAP_3                 675000
    RHS       CDUCAP_4                 1500000
    RHS       FCCCAP_4                 450000
    RHS       HDTCAP_4                 675000
    RHS       CDUCAP_5                 1500000
    RHS       FCCCAP_5                 450000
    RHS       HDTCAP_5                 675000
    RHS       CDUCAP_6                 1500000
    RHS       FCCCAP_6                 450000
    RHS       HDTCAP_6                 675000
    RHS       CDUCAP_7                 1500000
    RHS       FCCCAP_7                 450000
    RHS       HDTCAP_7                 675000
    RHS       CDUCAP_8                 1500000
    RHS       FCCCAP_8                 450000
    RHS       HDTCAP_8                 675000
    RHS       CDUCAP_9                 1500000
    RHS       FCCCAP_9                 450000
    RHS       HDTCAP_9                 675000
    RHS       CDUCAP_10                1500000
    RHS       FCCCAP_10                450000
    RHS       HDTCAP_10                675000
    RHS       CDUCAP_11                1500000
    RHS       FCCCAP_11                450000
    RHS       HDTCAP_11                675000
    RHS       CDUCAP_12                1500000
    RHS       FCCCAP_12                450000
    RHS       HDTCAP_12                675000
BOUNDS
 UP BND       BUY_BOMBAY_HIGH_1        630000
 UP BND       INVC_BOMBAY_HIGH_1       825000
 UP BND       BUY_ARAB_LIGHT_1         630000
 UP BND       INVC_ARAB_LIGHT_1        825000
 UP BND       BUY_ARAB_HEAVY_1         630000
 UP BND       INVC_ARAB_HEAVY_1        825000
 UP BND       BUY_BASRAH_1             630000
 UP BND       INVC_BASRAH_1            825000
 UP BND       BUY_URALS_1              630000
 UP BND       INVC_URALS_1             825000
 UP BND       BUY_MURBAN_1             630000
 UP BND       INVC_MURBAN_1            825000
 UP BND       BUY_ES_SIDER_1           630000
 UP BND       INVC_ES_SIDER_1          825000
 UP BND       BUY_QUA_IBOE_1           630000
 UP BND       INVC_QUA_IBOE_1          825000
 UP BND       SELL_GASOLINE_1          510000
 UP BND       SELL_JET_1               172200
 UP BND       SELL_DIESEL_P_1          588600
 UP BND       SELL_FUELOIL_1           218400
 UP BND       BUY_BOMBAY_HIGH_2        630000
 UP BND       INVC_BOMBAY_HIGH_2       825000
 UP BND       BUY_ARAB_LIGHT_2         630000
 UP BND       INVC_ARAB_LIGHT_2        825000
 UP BND       BUY_ARAB_HEAVY_2         630000
 UP BND       INVC_ARAB_HEAVY_2        825000
 UP BND       BUY_BASRAH_2             630000
 UP BND       INVC_BASRAH_2            825000
 UP BND       BUY_URALS_2              630000
 UP BND       INVC_URALS_2             825000
 UP BND       BUY_MURBAN_2             630000
 UP BND       INVC_MURBAN_2            825000
 UP BND       BUY_ES_SIDER_2           630000
 UP BND       INVC_ES_SIDER_2          825000
 UP BND       BUY_QUA_IBOE_2           630000
 UP BND       INVC_QUA_IBOE_2          825000
 UP BND       SELL_GASOLINE_2          601800
 UP BND       SELL_JET_2               210000
 UP BND       SELL_DIESEL_P_2          442800
 UP BND       SELL_FUELOIL_2           261600
 UP BND       BUY_BOMBAY_HIGH_3        630000
 UP BND       INVC_BOMBAY_HIGH_3       825000
 UP BND       BUY_ARAB_LIGHT_3         630000
 UP BND       INVC_ARAB_LIGHT_3        825000
 UP BND       BUY_ARAB_HEAVY_3         630000
 UP BND       INVC_ARAB_HEAVY_3        825000
 UP BND       BUY_BASRAH_3             630000
 UP BND       INVC_BASRAH_3            825000
 UP BND       BUY_URALS_3              630000
 UP BND       INVC_URALS_3             825000
 UP BND       BUY_MURBAN_3             630000
 UP BND       INVC_MURBAN_3            825000
 UP BND       BUY_ES_SIDER_3           630000
 UP BND       INVC_ES_SIDER_3          825000
 UP BND       BUY_QUA_IBOE_3           630000
 UP BND       INVC_QUA_IBOE_3          825000
 UP BND       SELL_GASOLINE_3          464100
 UP BND       SELL_JET_3               247800
 UP BND       SELL_DIESEL_P_3          540000
 UP BND       SELL_FUELOIL_3           196800
 UP BND       BUY_BOMBAY_HIGH_4        630000
 UP BND       INVC_BOMBAY_HIGH_4       825000
 UP BND       BUY_ARAB_LIGHT_4         630000
 UP BND       INVC_ARAB_LIGHT_4        825000
 UP BND       BUY_ARAB_HEAVY_4         630000
 UP BND       INVC_ARAB_HEAVY_4        825000
 UP BND       BUY_BASRAH_4             630000
 UP BND       INVC_BASRAH_4            825000
 UP BND       BUY_URALS_4              630000
 UP BND       INVC_URALS_4             825000
 UP BND       BUY_MURBAN_4             630000
 UP BND       INVC_MURBAN_4            825000
 UP BND       BUY_ES_SIDER_4           630000
 UP BND       INVC_ES_SIDER_4          825000
 UP BND       BUY_QUA_IBOE_4           630000
 UP BND       INVC_QUA_IBOE_4          825000
 UP BND       SELL_GASOLINE_4          555900
 UP BND       SELL_JET_4               191100
 UP BND       SELL_DIESEL_P_4          637200
 UP BND       SELL_FUELOIL_4           240000
 UP BND       BUY_BOMBAY_HIGH_5        630000
 UP BND       INVC_BOMBAY_HIGH_5       825000
 UP BND       BUY_ARAB_LIGHT_5         630000
 UP BND       INVC_ARAB_LIGHT_5        825000
 UP BND       BUY_ARAB_HEAVY_5         630000
 UP BND       INVC_ARAB_HEAVY_5        825000
 UP BND       BUY_BASRAH_5             630000
 UP BND       INVC_BASRAH_5            825000
 UP BND       BUY_URALS_5              630000
 UP BND       INVC_URALS_5             825000
 UP BND       BUY_MURBAN_5             630000
 UP BND       INVC_MURBAN_5            825000
 UP BND       BUY_ES_SIDER_5           630000
 UP BND       INVC_ES_SIDER_5          825000
 UP BND       BUY_QUA_IBOE_5           630000
 UP BND       INVC_QUA_IBOE_5          825000
 UP BND       SELL_GASOLINE_5          418200
 UP BND       SELL_JET_5               228900
 UP BND       SELL_DIESEL_P_5          491400
 UP BND       SELL_FUELOIL_5           283200
 UP BND       BUY_BOMBAY_HIGH_6        630000
 UP BND       INVC_BOMBAY_HIGH_6       825000
 UP BND       BUY_ARAB_LIGHT_6         630000
 UP BND       INVC_ARAB_LIGHT_6        825000
 UP BND       BUY_ARAB_HEAVY_6         630000
 UP BND       INVC_ARAB_HEAVY_6        825000
 UP BND       BUY_BASRAH_6             630000
 UP BND       INVC_BASRAH_6            825000
 UP BND       BUY_URALS_6              630000
 UP BND       INVC_URALS_6             825000
 UP BND       BUY_MURBAN_6             630000
 UP BND       INVC_MURBAN_6            825000
 UP BND       BUY_ES_SIDER_6           630000
 UP BND       INVC_ES_SIDER_6          825000
 UP BND       BUY_QUA_IBOE_6           630000
 UP BND       INVC_QUA_IBOE_6          825000
 UP BND       SELL_GASOLINE_6          510000
 UP BND       SELL_JET_6               172200
 UP BND       SELL_DIESEL_P_6          588600
 UP BND       SELL_FUELOIL_6           218400
 UP BND       BUY_BOMBAY_HIGH_7        630000
 UP BND       INVC_BOMBAY_HIGH_7       825000
 UP BND       BUY_ARAB_LIGHT_7         630000
 UP BND       INVC_ARAB_LIGHT_7        825000
 UP BND       BUY_ARAB_HEAVY_7         630000
 UP BND       INVC_ARAB_HEAVY_7        825000
 UP BND       BUY_BASRAH_7             630000
 UP BND       INVC_BASRAH_7            825000
 UP BND       BUY_URALS_7              630000
 UP BND       INVC_URALS_7             825000
 UP BND       BUY_MURBAN_7             630000
 UP BND       INVC_MURBAN_7            825000
 UP BND       BUY_ES_SIDER_7           630000
 UP BND       INVC_ES_SIDER_7          825000
 UP BND       BUY_QUA_IBOE_7           630000
 UP BND       INVC_QUA_IBOE_7          825000
 UP BND       SELL_GASOLINE_7          601800
 UP BND       SELL_JET_7               210000
 UP BND       SELL_DIESEL_P_7          442800
 UP BND       SELL_FUELOIL_7           261600
 UP BND       BUY_BOMBAY_HIGH_8        630000
 UP BND       INVC_BOMBAY_HIGH_8       825000
 UP BND       BUY_ARAB_LIGHT_8         630000
 UP BND       INVC_ARAB_LIGHT_8        825000
 UP BND       BUY_ARAB_HEAVY_8         630000
 UP BND       INVC_ARAB_HEAVY_8        825000
 UP BND       BUY_BASRAH_8             630000
 UP BND       INVC_BASRAH_8            825000
 UP BND       BUY_URALS_8              630000
 UP BND       INVC_URALS_8             825000
 UP BND       BUY_MURBAN_8             630000
 UP BND       INVC_MURBAN_8            825000
 UP BND       BUY_ES_SIDER_8           630000
 UP BND       INVC_ES_SIDER_8          825000
 UP BND       BUY_QUA_IBOE_8           630000
 UP BND       INVC_QUA_IBOE_8          825000
 UP BND       SELL_GASOLINE_8          464100
 UP BND       SELL_JET_8               247800
 UP BND       SELL_DIESEL_P_8          540000
 UP BND       SELL_FUELOIL_8           196800
 UP BND       BUY_BOMBAY_HIGH_9        630000
 UP BND       INVC_BOMBAY_HIGH_9       825000
 UP BND       BUY_ARAB_LIGHT_9         630000
 UP BND       INVC_ARAB_LIGHT_9        825000
 UP BND       BUY_ARAB_HEAVY_9         630000
 UP BND       INVC_ARAB_HEAVY_9        825000
 UP BND       BUY_BASRAH_9             630000
 UP BND       INVC_BASRAH_9            825000
 UP BND       BUY_URALS_9              630000
 UP BND       INVC_URALS_9             825000
 UP BND       BUY_MURBAN_9             630000
 UP BND       INVC_MURBAN_9            825000
 UP BND       BUY_ES_SIDER_9           630000
 UP BND       INVC_ES_SIDER_9          825000
 UP BND       BUY_QUA_IBOE_9           630000
 UP BND       INVC_QUA_IBOE_9          825000
 UP BND       SELL_GASOLINE_9          555900
 UP BND       SELL_JET_9               191100
 UP BND       SELL_DIESEL_P_9          637200
 UP BND       SELL_FUELOIL_9           240000
 UP BND       BUY_BOMBAY_HIGH_10       630000
 UP BND       INVC_BOMBAY_HIGH_10      825000
 UP BND       BUY_ARAB_LIGHT_10        630000
 UP BND       INVC_ARAB_LIGHT_10       825000
 UP BND       BUY_ARAB_HEAVY_10        630000
 UP BND       INVC_ARAB_HEAVY_10       825000
 UP BND       BUY_BASRAH_10            630000
 UP BND       INVC_BASRAH_10           825000
 UP BND       BUY_URALS_10             630000
 UP BND       INVC_URALS_10            825000
 UP BND       BUY_MURBAN_10            630000
 UP BND       INVC_MURBAN_10           825000
 UP BND       BUY_ES_SIDER_10          630000
 UP BND       INVC_ES_SIDER_10         825000
 UP BND       BUY_QUA_IBOE_10          630000
 UP BND       INVC_QUA_IBOE_10         825000
 UP BND       SELL_GASOLINE_10         418200
 UP BND       SELL_JET_10              228900
 UP BND       SELL_DIESEL_P_10         491400
 UP BND       SELL_FUELOIL_10          283200
 UP BND       BUY_BOMBAY_HIGH_11       630000
 UP BND       INVC_BOMBAY_HIGH_11      825000
 UP BND       BUY_ARAB_LIGHT_11        630000
 UP BND       INVC_ARAB_LIGHT_11       825000
 UP BND       BUY_ARAB_HEAVY_11        630000
 UP BND       INVC_ARAB_HEAVY_11       825000
 UP BND       BUY_BASRAH_11            630000
 UP BND       INVC_BASRAH_11           825000
 UP BND       BUY_URALS_11             630000
 UP BND       INVC_URALS_11            825000
 UP BND       BUY_MURBAN_11            630000
 UP BND       INVC_MURBAN_11           825000
 UP BND       BUY_ES_SIDER_11          630000
 UP BND       INVC_ES_SIDER_11         825000
 UP BND       BUY_QUA_IBOE_11          630000
 UP BND       INVC_QUA_IBOE_11         825000
 UP BND       SELL_GASOLINE_11         510000
 UP BND       SELL_JET_11              172200
 UP BND       SELL_DIESEL_P_11         588600
 UP BND       SELL_FUELOIL_11          218400
 UP BND       BUY_BOMBAY_HIGH_12       630000
 UP BND       INVC_BOMBAY_HIGH_12      825000
 UP BND       BUY_ARAB_LIGHT_12        630000
 UP BND       INVC_ARAB_LIGHT_12       825000
 UP BND       BUY_ARAB_HEAVY_12        630000
 UP BND       INVC_ARAB_HEAVY_12       825000
 UP BND       BUY_BASRAH_12            630000
 UP BND       INVC_BASRAH_12           825000
 UP BND       BUY_URALS_12             630000
 UP BND       INVC_URALS_12            825000
 UP BND       BUY_MURBAN_12            630000
 UP BND       INVC_MURBAN_12           825000
 UP BND       BUY_ES_SIDER_12          630000
 UP BND       INVC_ES_SIDER_12         825000
 UP BND       BUY_QUA_IBOE_12          630000
 UP BND       INVC_QUA_IBOE_12         825000
 UP BND       SELL_GASOLINE_12         601800
 UP BND       SELL_JET_12              210000
 UP BND       SELL_DIESEL_P_12         442800
 UP BND       SELL_FUELOIL_12          261600
ENDATA
