NAME          REFINERY
OBJSENSE
    MAX
ROWS
 N  COST
 L  CDUCAP_1
 E  CBAL_BOMBAY_HIGH_1
 E  STRM_BOMBAY_HIGH_NAPHTHA_1
 E  STRM_BOMBAY_HIGH_KERO_1
 E  STRM_BOMBAY_HIGH_DIESEL_1
 E  STRM_BOMBAY_HIGH_VGO_1
 E  STRM_BOMBAY_HIGH_RESIDUE_1
 E  CBAL_ARAB_LIGHT_1
 E  STRM_ARAB_LIGHT_NAPHTHA_1
 E  STRM_ARAB_LIGHT_KERO_1
 E  STRM_ARAB_LIGHT_DIESEL_1
 E  STRM_ARAB_LIGHT_VGO_1
 E  STRM_ARAB_LIGHT_RESIDUE_1
 E  CBAL_ARAB_HEAVY_1
 E  STRM_ARAB_HEAVY_NAPHTHA_1
 E  STRM_ARAB_HEAVY_KERO_1
 E  STRM_ARAB_HEAVY_DIESEL_1
 E  STRM_ARAB_HEAVY_VGO_1
 E  STRM_ARAB_HEAVY_RESIDUE_1
 E  CBAL_BASRAH_1
 E  STRM_BASRAH_NAPHTHA_1
 E  STRM_BASRAH_KERO_1
 E  STRM_BASRAH_DIESEL_1
 E  STRM_BASRAH_VGO_1
 E  STRM_BASRAH_RESIDUE_1
 E  PBAL_GASOLINE_1
 L  QUAL_GASOLINE_1
 E  PBAL_JET_1
 L  QUAL_JET_1
 E  PBAL_DIESEL_P_1
 L  QUAL_DIESEL_P_1
 E  PBAL_FUELOIL_1
 L  QUAL_FUELOIL_1
 L  CDUCAP_2
 E  CBAL_BOMBAY_HIGH_2
 E  STRM_BOMBAY_HIGH_NAPHTHA_2
 E  STRM_BOMBAY_HIGH_KERO_2
 E  STRM_BOMBAY_HIGH_DIESEL_2
 E  STRM_BOMBAY_HIGH_VGO_2
 E  STRM_BOMBAY_HIGH_RESIDUE_2
 E  CBAL_ARAB_LIGHT_2
 E  STRM_ARAB_LIGHT_NAPHTHA_2
 E  STRM_ARAB_LIGHT_KERO_2
 E  STRM_ARAB_LIGHT_DIESEL_2
 E  STRM_ARAB_LIGHT_VGO_2
 E  STRM_ARAB_LIGHT_RESIDUE_2
 E  CBAL_ARAB_HEAVY_2
 E  STRM_ARAB_HEAVY_NAPHTHA_2
 E  STRM_ARAB_HEAVY_KERO_2
 E  STRM_ARAB_HEAVY_DIESEL_2
 E  STRM_ARAB_HEAVY_VGO_2
 E  STRM_ARAB_HEAVY_RESIDUE_2
 E  CBAL_BASRAH_2
 E  STRM_BASRAH_NAPHTHA_2
 E  STRM_BASRAH_KERO_2
 E  STRM_BASRAH_DIESEL_2
 E  STRM_BASRAH_VGO_2
 E  STRM_BASRAH_RESIDUE_2
 E  PBAL_GASOLINE_2
 L  QUAL_GASOLINE_2
 E  PBAL_JET_2
 L  QUAL_JET_2
 E  PBAL_DIESEL_P_2
 L  QUAL_DIESEL_P_2
 E  PBAL_FUELOIL_2
 L  QUAL_FUELOIL_2
 L  CDUCAP_3
 E  CBAL_BOMBAY_HIGH_3
 E  STRM_BOMBAY_HIGH_NAPHTHA_3
 E  STRM_BOMBAY_HIGH_KERO_3
 E  STRM_BOMBAY_HIGH_DIESEL_3
 E  STRM_BOMBAY_HIGH_VGO_3
 E  STRM_BOMBAY_HIGH_RESIDUE_3
 E  CBAL_ARAB_LIGHT_3
 E  STRM_ARAB_LIGHT_NAPHTHA_3
 E  STRM_ARAB_LIGHT_KERO_3
 E  STRM_ARAB_LIGHT_DIESEL_3
 E  STRM_ARAB_LIGHT_VGO_3
 E  STRM_ARAB_LIGHT_RESIDUE_3
 E  CBAL_ARAB_HEAVY_3
 E  STRM_ARAB_HEAVY_NAPHTHA_3
 E  STRM_ARAB_HEAVY_KERO_3
 E  STRM_ARAB_HEAVY_DIESEL_3
 E  STRM_ARAB_HEAVY_VGO_3
 E  STRM_ARAB_HEAVY_RESIDUE_3
 E  CBAL_BASRAH_3
 E  STRM_BASRAH_NAPHTHA_3
 E  STRM_BASRAH_KERO_3
 E  STRM_BASRAH_DIESEL_3
 E  STRM_BASRAH_VGO_3
 E  STRM_BASRAH_RESIDUE_3
 E  PBAL_GASOLINE_3
 L  QUAL_GASOLINE_3
 E  PBAL_JET_3
 L  QUAL_JET_3
 E  PBAL_DIESEL_P_3
 L  QUAL_DIESEL_P_3
 E  PBAL_FUELOIL_3
 L  QUAL_FUELOIL_3
 L  CDUCAP_4
 E  CBAL_BOMBAY_HIGH_4
 E  STRM_BOMBAY_HIGH_NAPHTHA_4
 E  STRM_BOMBAY_HIGH_KERO_4
 E  STRM_BOMBAY_HIGH_DIESEL_4
 E  STRM_BOMBAY_HIGH_VGO_4
 E  STRM_BOMBAY_HIGH_RESIDUE_4
 E  CBAL_ARAB_LIGHT_4
 E  STRM_ARAB_LIGHT_NAPHTHA_4
 E  STRM_ARAB_LIGHT_KERO_4
 E  STRM_ARAB_LIGHT_DIESEL_4
 E  STRM_ARAB_LIGHT_VGO_4
 E  STRM_ARAB_LIGHT_RESIDUE_4
 E  CBAL_ARAB_HEAVY_4
 E  STRM_ARAB_HEAVY_NAPHTHA_4
 E  STRM_ARAB_HEAVY_KERO_4
 E  STRM_ARAB_HEAVY_DIESEL_4
 E  STRM_ARAB_HEAVY_VGO_4
 E  STRM_ARAB_HEAVY_RESIDUE_4
 E  CBAL_BASRAH_4
 E  STRM_BASRAH_NAPHTHA_4
 E  STRM_BASRAH_KERO_4
 E  STRM_BASRAH_DIESEL_4
 E  STRM_BASRAH_VGO_4
 E  STRM_BASRAH_RESIDUE_4
 E  PBAL_GASOLINE_4
 L  QUAL_GASOLINE_4
 E  PBAL_JET_4
 L  QUAL_JET_4
 E  PBAL_DIESEL_P_4
 L  QUAL_DIESEL_P_4
 E  PBAL_FUELOIL_4
 L  QUAL_FUELOIL_4
COLUMNS
    BUY_BOMBAY_HIGH_1         COST                     -6850  CBAL_BOMBAY_HIGH_1       1
    INVC_BOMBAY_HIGH_1        COST                     -82.2  CBAL_BOMBAY_HIGH_1       -1
    INVC_BOMBAY_HIGH_1        CBAL_BOMBAY_HIGH_2       1
    CHG_BOMBAY_HIGH_1         COST                     -145  CBAL_BOMBAY_HIGH_1       -1
    CHG_BOMBAY_HIGH_1         CDUCAP_1                 1  STRM_BOMBAY_HIGH_NAPHTHA_1 0.26
    CHG_BOMBAY_HIGH_1         STRM_BOMBAY_HIGH_KERO_1  0.18  STRM_BOMBAY_HIGH_DIESEL_1 0.24
    CHG_BOMBAY_HIGH_1         STRM_BOMBAY_HIGH_VGO_1   0.2  STRM_BOMBAY_HIGH_RESIDUE_1 0.12
    SLACK_BOMBAY_HIGH_NAPHTHA_1  COST                     -180  STRM_BOMBAY_HIGH_NAPHTHA_1 -1
    BL_BOMBAY_HIGH_NAPHTHA_GASOLINE_1  STRM_BOMBAY_HIGH_NAPHTHA_1 -1  PBAL_GASOLINE_1          1
    BL_BOMBAY_HIGH_NAPHTHA_GASOLINE_1  QUAL_GASOLINE_1          -32
    BL_BOMBAY_HIGH_NAPHTHA_JET_1  STRM_BOMBAY_HIGH_NAPHTHA_1 -1  PBAL_JET_1               1
    BL_BOMBAY_HIGH_NAPHTHA_JET_1  QUAL_JET_1               -2482
    SLACK_BOMBAY_HIGH_KERO_1  COST                     -180  STRM_BOMBAY_HIGH_KERO_1  -1
    BL_BOMBAY_HIGH_KERO_GASOLINE_1  STRM_BOMBAY_HIGH_KERO_1  -1  PBAL_GASOLINE_1          1
    BL_BOMBAY_HIGH_KERO_GASOLINE_1  QUAL_GASOLINE_1          85
    BL_BOMBAY_HIGH_KERO_JET_1  STRM_BOMBAY_HIGH_KERO_1  -1  PBAL_JET_1               1
    BL_BOMBAY_HIGH_KERO_JET_1  QUAL_JET_1               -2365
    BL_BOMBAY_HIGH_KERO_DIESEL_P_1  STRM_BOMBAY_HIGH_KERO_1  -1  PBAL_DIESEL_P_1          1
    BL_BOMBAY_HIGH_KERO_DIESEL_P_1  QUAL_DIESEL_P_1          -215
    SLACK_BOMBAY_HIGH_DIESEL_1  COST                     -180  STRM_BOMBAY_HIGH_DIESEL_1 -1
    BL_BOMBAY_HIGH_DIESEL_DIESEL_P_1  STRM_BOMBAY_HIGH_DIESEL_1 -1  PBAL_DIESEL_P_1          1
    BL_BOMBAY_HIGH_DIESEL_DIESEL_P_1  QUAL_DIESEL_P_1          145
    BL_BOMBAY_HIGH_DIESEL_FUELOIL_1  STRM_BOMBAY_HIGH_DIESEL_1 -1  PBAL_FUELOIL_1           1
    BL_BOMBAY_HIGH_DIESEL_FUELOIL_1  QUAL_FUELOIL_1           -34505
    SLACK_BOMBAY_HIGH_VGO_1   COST                     -180  STRM_BOMBAY_HIGH_VGO_1   -1
    BL_BOMBAY_HIGH_VGO_DIESEL_P_1  STRM_BOMBAY_HIGH_VGO_1   -1  PBAL_DIESEL_P_1          1
    BL_BOMBAY_HIGH_VGO_DIESEL_P_1  QUAL_DIESEL_P_1          865
    BL_BOMBAY_HIGH_VGO_FUELOIL_1  STRM_BOMBAY_HIGH_VGO_1   -1  PBAL_FUELOIL_1           1
    BL_BOMBAY_HIGH_VGO_FUELOIL_1  QUAL_FUELOIL_1           -33785
    SLACK_BOMBAY_HIGH_RESIDUE_1  COST                     -180  STRM_BOMBAY_HIGH_RESIDUE_1 -1
    BL_BOMBAY_HIGH_RESIDUE_FUELOIL_1  STRM_BOMBAY_HIGH_RESIDUE_1 -1  PBAL_FUELOIL_1           1
    BL_BOMBAY_HIGH_RESIDUE_FUELOIL_1  QUAL_FUELOIL_1           -32660
    BUY_ARAB_LIGHT_1          COST                     -6420  CBAL_ARAB_LIGHT_1        1
    INVC_ARAB_LIGHT_1         COST                     -77.04  CBAL_ARAB_LIGHT_1        -1
    INVC_ARAB_LIGHT_1         CBAL_ARAB_LIGHT_2        1
    CHG_ARAB_LIGHT_1          COST                     -145  CBAL_ARAB_LIGHT_1        -1
    CHG_ARAB_LIGHT_1          CDUCAP_1                 1  STRM_ARAB_LIGHT_NAPHTHA_1 0.22
    CHG_ARAB_LIGHT_1          STRM_ARAB_LIGHT_KERO_1   0.17  STRM_ARAB_LIGHT_DIESEL_1 0.23
    CHG_ARAB_LIGHT_1          STRM_ARAB_LIGHT_VGO_1    0.22  STRM_ARAB_LIGHT_RESIDUE_1 0.16
    SLACK_ARAB_LIGHT_NAPHTHA_1  COST                     -180  STRM_ARAB_LIGHT_NAPHTHA_1 -1
    BL_ARAB_LIGHT_NAPHTHA_GASOLINE_1  STRM_ARAB_LIGHT_NAPHTHA_1 -1  PBAL_GASOLINE_1          1
    BL_ARAB_LIGHT_NAPHTHA_GASOLINE_1  QUAL_GASOLINE_1          330
    BL_ARAB_LIGHT_NAPHTHA_JET_1  STRM_ARAB_LIGHT_NAPHTHA_1 -1  PBAL_JET_1               1
    BL_ARAB_LIGHT_NAPHTHA_JET_1  QUAL_JET_1               -2120
    SLACK_ARAB_LIGHT_KERO_1   COST                     -180  STRM_ARAB_LIGHT_KERO_1   -1
    BL_ARAB_LIGHT_KERO_GASOLINE_1  STRM_ARAB_LIGHT_KERO_1   -1  PBAL_GASOLINE_1          1
    BL_ARAB_LIGHT_KERO_GASOLINE_1  QUAL_GASOLINE_1          2800
    BL_ARAB_LIGHT_KERO_JET_1  STRM_ARAB_LIGHT_KERO_1   -1  PBAL_JET_1               1
    BL_ARAB_LIGHT_KERO_JET_1  QUAL_JET_1               350
    BL_ARAB_LIGHT_KERO_DIESEL_P_1  STRM_ARAB_LIGHT_KERO_1   -1  PBAL_DIESEL_P_1          1
    BL_ARAB_LIGHT_KERO_DIESEL_P_1  QUAL_DIESEL_P_1          2500
    SLACK_ARAB_LIGHT_DIESEL_1  COST                     -180  STRM_ARAB_LIGHT_DIESEL_1 -1
    BL_ARAB_LIGHT_DIESEL_DIESEL_P_1  STRM_ARAB_LIGHT_DIESEL_1 -1  PBAL_DIESEL_P_1          1
    BL_ARAB_LIGHT_DIESEL_DIESEL_P_1  QUAL_DIESEL_P_1          10100
    BL_ARAB_LIGHT_DIESEL_FUELOIL_1  STRM_ARAB_LIGHT_DIESEL_1 -1  PBAL_FUELOIL_1           1
    BL_ARAB_LIGHT_DIESEL_FUELOIL_1  QUAL_FUELOIL_1           -24550
    SLACK_ARAB_LIGHT_VGO_1    COST                     -180  STRM_ARAB_LIGHT_VGO_1    -1
    BL_ARAB_LIGHT_VGO_DIESEL_P_1  STRM_ARAB_LIGHT_VGO_1    -1  PBAL_DIESEL_P_1          1
    BL_ARAB_LIGHT_VGO_DIESEL_P_1  QUAL_DIESEL_P_1          25300
    BL_ARAB_LIGHT_VGO_FUELOIL_1  STRM_ARAB_LIGHT_VGO_1    -1  PBAL_FUELOIL_1           1
    BL_ARAB_LIGHT_VGO_FUELOIL_1  QUAL_FUELOIL_1           -9350
    SLACK_ARAB_LIGHT_RESIDUE_1  COST                     -180  STRM_ARAB_LIGHT_RESIDUE_1 -1
    BL_ARAB_LIGHT_RESIDUE_FUELOIL_1  STRM_ARAB_LIGHT_RESIDUE_1 -1  PBAL_FUELOIL_1           1
    BL_ARAB_LIGHT_RESIDUE_FUELOIL_1  QUAL_FUELOIL_1           14400
    BUY_ARAB_HEAVY_1          COST                     -5980  CBAL_ARAB_HEAVY_1        1
    INVC_ARAB_HEAVY_1         COST                     -71.76  CBAL_ARAB_HEAVY_1        -1
    INVC_ARAB_HEAVY_1         CBAL_ARAB_HEAVY_2        1
    CHG_ARAB_HEAVY_1          COST                     -145  CBAL_ARAB_HEAVY_1        -1
    CHG_ARAB_HEAVY_1          CDUCAP_1                 1  STRM_ARAB_HEAVY_NAPHTHA_1 0.16
    CHG_ARAB_HEAVY_1          STRM_ARAB_HEAVY_KERO_1   0.14  STRM_ARAB_HEAVY_DIESEL_1 0.21
    CHG_ARAB_HEAVY_1          STRM_ARAB_HEAVY_VGO_1    0.25  STRM_ARAB_HEAVY_RESIDUE_1 0.24
    SLACK_ARAB_HEAVY_NAPHTHA_1  COST                     -180  STRM_ARAB_HEAVY_NAPHTHA_1 -1
    BL_ARAB_HEAVY_NAPHTHA_GASOLINE_1  STRM_ARAB_HEAVY_NAPHTHA_1 -1  PBAL_GASOLINE_1          1
    BL_ARAB_HEAVY_NAPHTHA_GASOLINE_1  QUAL_GASOLINE_1          530
    BL_ARAB_HEAVY_NAPHTHA_JET_1  STRM_ARAB_HEAVY_NAPHTHA_1 -1  PBAL_JET_1               1
    BL_ARAB_HEAVY_NAPHTHA_JET_1  QUAL_JET_1               -1920
    SLACK_ARAB_HEAVY_KERO_1   COST                     -180  STRM_ARAB_HEAVY_KERO_1   -1
    BL_ARAB_HEAVY_KERO_GASOLINE_1  STRM_ARAB_HEAVY_KERO_1   -1  PBAL_GASOLINE_1          1
    BL_ARAB_HEAVY_KERO_GASOLINE_1  QUAL_GASOLINE_1          4300
    BL_ARAB_HEAVY_KERO_JET_1  STRM_ARAB_HEAVY_KERO_1   -1  PBAL_JET_1               1
    BL_ARAB_HEAVY_KERO_JET_1  QUAL_JET_1               1850
    BL_ARAB_HEAVY_KERO_DIESEL_P_1  STRM_ARAB_HEAVY_KERO_1   -1  PBAL_DIESEL_P_1          1
    BL_ARAB_HEAVY_KERO_DIESEL_P_1  QUAL_DIESEL_P_1          4000
    SLACK_ARAB_HEAVY_DIESEL_1  COST                     -180  STRM_ARAB_HEAVY_DIESEL_1 -1
    BL_ARAB_HEAVY_DIESEL_DIESEL_P_1  STRM_ARAB_HEAVY_DIESEL_1 -1  PBAL_DIESEL_P_1          1
    BL_ARAB_HEAVY_DIESEL_DIESEL_P_1  QUAL_DIESEL_P_1          15600
    BL_ARAB_HEAVY_DIESEL_FUELOIL_1  STRM_ARAB_HEAVY_DIESEL_1 -1  PBAL_FUELOIL_1           1
    BL_ARAB_HEAVY_DIESEL_FUELOIL_1  QUAL_FUELOIL_1           -19050
    SLACK_ARAB_HEAVY_VGO_1    COST                     -180  STRM_ARAB_HEAVY_VGO_1    -1
    BL_ARAB_HEAVY_VGO_DIESEL_P_1  STRM_ARAB_HEAVY_VGO_1    -1  PBAL_DIESEL_P_1          1
    BL_ARAB_HEAVY_VGO_DIESEL_P_1  QUAL_DIESEL_P_1          38800
    BL_ARAB_HEAVY_VGO_FUELOIL_1  STRM_ARAB_HEAVY_VGO_1    -1  PBAL_FUELOIL_1           1
    BL_ARAB_HEAVY_VGO_FUELOIL_1  QUAL_FUELOIL_1           4150
    SLACK_ARAB_HEAVY_RESIDUE_1  COST                     -180  STRM_ARAB_HEAVY_RESIDUE_1 -1
    BL_ARAB_HEAVY_RESIDUE_FUELOIL_1  STRM_ARAB_HEAVY_RESIDUE_1 -1  PBAL_FUELOIL_1           1
    BL_ARAB_HEAVY_RESIDUE_FUELOIL_1  QUAL_FUELOIL_1           40400
    BUY_BASRAH_1              COST                     -6100  CBAL_BASRAH_1            1
    INVC_BASRAH_1             COST                     -73.2  CBAL_BASRAH_1            -1
    INVC_BASRAH_1             CBAL_BASRAH_2            1
    CHG_BASRAH_1              COST                     -145  CBAL_BASRAH_1            -1
    CHG_BASRAH_1              CDUCAP_1                 1  STRM_BASRAH_NAPHTHA_1    0.18
    CHG_BASRAH_1              STRM_BASRAH_KERO_1       0.15  STRM_BASRAH_DIESEL_1     0.22
    CHG_BASRAH_1              STRM_BASRAH_VGO_1        0.24  STRM_BASRAH_RESIDUE_1    0.21
    SLACK_BASRAH_NAPHTHA_1    COST                     -180  STRM_BASRAH_NAPHTHA_1    -1
    BL_BASRAH_NAPHTHA_GASOLINE_1  STRM_BASRAH_NAPHTHA_1    -1  PBAL_GASOLINE_1          1
    BL_BASRAH_NAPHTHA_GASOLINE_1  QUAL_GASOLINE_1          440
    BL_BASRAH_NAPHTHA_JET_1   STRM_BASRAH_NAPHTHA_1    -1  PBAL_JET_1               1
    BL_BASRAH_NAPHTHA_JET_1   QUAL_JET_1               -2010
    SLACK_BASRAH_KERO_1       COST                     -180  STRM_BASRAH_KERO_1       -1
    BL_BASRAH_KERO_GASOLINE_1  STRM_BASRAH_KERO_1       -1  PBAL_GASOLINE_1          1
    BL_BASRAH_KERO_GASOLINE_1  QUAL_GASOLINE_1          3625
    BL_BASRAH_KERO_JET_1      STRM_BASRAH_KERO_1       -1  PBAL_JET_1               1
    BL_BASRAH_KERO_JET_1      QUAL_JET_1               1175
    BL_BASRAH_KERO_DIESEL_P_1  STRM_BASRAH_KERO_1       -1  PBAL_DIESEL_P_1          1
    BL_BASRAH_KERO_DIESEL_P_1  QUAL_DIESEL_P_1          3325
    SLACK_BASRAH_DIESEL_1     COST                     -180  STRM_BASRAH_DIESEL_1     -1
    BL_BASRAH_DIESEL_DIESEL_P_1  STRM_BASRAH_DIESEL_1     -1  PBAL_DIESEL_P_1          1
    BL_BASRAH_DIESEL_DIESEL_P_1  QUAL_DIESEL_P_1          13125
    BL_BASRAH_DIESEL_FUELOIL_1  STRM_BASRAH_DIESEL_1     -1  PBAL_FUELOIL_1           1
    BL_BASRAH_DIESEL_FUELOIL_1  QUAL_FUELOIL_1           -21525
    SLACK_BASRAH_VGO_1        COST                     -180  STRM_BASRAH_VGO_1        -1
    BL_BASRAH_VGO_DIESEL_P_1  STRM_BASRAH_VGO_1        -1  PBAL_DIESEL_P_1          1
    BL_BASRAH_VGO_DIESEL_P_1  QUAL_DIESEL_P_1          32725
    BL_BASRAH_VGO_FUELOIL_1   STRM_BASRAH_VGO_1        -1  PBAL_FUELOIL_1           1
    BL_BASRAH_VGO_FUELOIL_1   QUAL_FUELOIL_1           -1925
    SLACK_BASRAH_RESIDUE_1    COST                     -180  STRM_BASRAH_RESIDUE_1    -1
    BL_BASRAH_RESIDUE_FUELOIL_1  STRM_BASRAH_RESIDUE_1    -1  PBAL_FUELOIL_1           1
    BL_BASRAH_RESIDUE_FUELOIL_1  QUAL_FUELOIL_1           28700
    SELL_GASOLINE_1           COST                     9250  PBAL_GASOLINE_1          -1
    SELL_JET_1                COST                     8900  PBAL_JET_1               -1
    SELL_DIESEL_P_1           COST                     8600  PBAL_DIESEL_P_1          -1
    SELL_FUELOIL_1            COST                     4900  PBAL_FUELOIL_1           -1
    BUY_BOMBAY_HIGH_2         COST                     -6850  CBAL_BOMBAY_HIGH_2       1
    INVC_BOMBAY_HIGH_2        COST                     -82.2  CBAL_BOMBAY_HIGH_2       -1
    INVC_BOMBAY_HIGH_2        CBAL_BOMBAY_HIGH_3       1
    CHG_BOMBAY_HIGH_2         COST                     -145  CBAL_BOMBAY_HIGH_2       -1
    CHG_BOMBAY_HIGH_2         CDUCAP_2                 1  STRM_BOMBAY_HIGH_NAPHTHA_2 0.26
    CHG_BOMBAY_HIGH_2         STRM_BOMBAY_HIGH_KERO_2  0.18  STRM_BOMBAY_HIGH_DIESEL_2 0.24
    CHG_BOMBAY_HIGH_2         STRM_BOMBAY_HIGH_VGO_2   0.2  STRM_BOMBAY_HIGH_RESIDUE_2 0.12
    SLACK_BOMBAY_HIGH_NAPHTHA_2  COST                     -180  STRM_BOMBAY_HIGH_NAPHTHA_2 -1
    BL_BOMBAY_HIGH_NAPHTHA_GASOLINE_2  STRM_BOMBAY_HIGH_NAPHTHA_2 -1  PBAL_GASOLINE_2          1
    BL_BOMBAY_HIGH_NAPHTHA_GASOLINE_2  QUAL_GASOLINE_2          -32
    BL_BOMBAY_HIGH_NAPHTHA_JET_2  STRM_BOMBAY_HIGH_NAPHTHA_2 -1  PBAL_JET_2               1
    BL_BOMBAY_HIGH_NAPHTHA_JET_2  QUAL_JET_2               -2482
    SLACK_BOMBAY_HIGH_KERO_2  COST                     -180  STRM_BOMBAY_HIGH_KERO_2  -1
    BL_BOMBAY_HIGH_KERO_GASOLINE_2  STRM_BOMBAY_HIGH_KERO_2  -1  PBAL_GASOLINE_2          1
    BL_BOMBAY_HIGH_KERO_GASOLINE_2  QUAL_GASOLINE_2          85
    BL_BOMBAY_HIGH_KERO_JET_2  STRM_BOMBAY_HIGH_KERO_2  -1  PBAL_JET_2               1
    BL_BOMBAY_HIGH_KERO_JET_2  QUAL_JET_2               -2365
    BL_BOMBAY_HIGH_KERO_DIESEL_P_2  STRM_BOMBAY_HIGH_KERO_2  -1  PBAL_DIESEL_P_2          1
    BL_BOMBAY_HIGH_KERO_DIESEL_P_2  QUAL_DIESEL_P_2          -215
    SLACK_BOMBAY_HIGH_DIESEL_2  COST                     -180  STRM_BOMBAY_HIGH_DIESEL_2 -1
    BL_BOMBAY_HIGH_DIESEL_DIESEL_P_2  STRM_BOMBAY_HIGH_DIESEL_2 -1  PBAL_DIESEL_P_2          1
    BL_BOMBAY_HIGH_DIESEL_DIESEL_P_2  QUAL_DIESEL_P_2          145
    BL_BOMBAY_HIGH_DIESEL_FUELOIL_2  STRM_BOMBAY_HIGH_DIESEL_2 -1  PBAL_FUELOIL_2           1
    BL_BOMBAY_HIGH_DIESEL_FUELOIL_2  QUAL_FUELOIL_2           -34505
    SLACK_BOMBAY_HIGH_VGO_2   COST                     -180  STRM_BOMBAY_HIGH_VGO_2   -1
    BL_BOMBAY_HIGH_VGO_DIESEL_P_2  STRM_BOMBAY_HIGH_VGO_2   -1  PBAL_DIESEL_P_2          1
    BL_BOMBAY_HIGH_VGO_DIESEL_P_2  QUAL_DIESEL_P_2          865
    BL_BOMBAY_HIGH_VGO_FUELOIL_2  STRM_BOMBAY_HIGH_VGO_2   -1  PBAL_FUELOIL_2           1
    BL_BOMBAY_HIGH_VGO_FUELOIL_2  QUAL_FUELOIL_2           -33785
    SLACK_BOMBAY_HIGH_RESIDUE_2  COST                     -180  STRM_BOMBAY_HIGH_RESIDUE_2 -1
    BL_BOMBAY_HIGH_RESIDUE_FUELOIL_2  STRM_BOMBAY_HIGH_RESIDUE_2 -1  PBAL_FUELOIL_2           1
    BL_BOMBAY_HIGH_RESIDUE_FUELOIL_2  QUAL_FUELOIL_2           -32660
    BUY_ARAB_LIGHT_2          COST                     -6420  CBAL_ARAB_LIGHT_2        1
    INVC_ARAB_LIGHT_2         COST                     -77.04  CBAL_ARAB_LIGHT_2        -1
    INVC_ARAB_LIGHT_2         CBAL_ARAB_LIGHT_3        1
    CHG_ARAB_LIGHT_2          COST                     -145  CBAL_ARAB_LIGHT_2        -1
    CHG_ARAB_LIGHT_2          CDUCAP_2                 1  STRM_ARAB_LIGHT_NAPHTHA_2 0.22
    CHG_ARAB_LIGHT_2          STRM_ARAB_LIGHT_KERO_2   0.17  STRM_ARAB_LIGHT_DIESEL_2 0.23
    CHG_ARAB_LIGHT_2          STRM_ARAB_LIGHT_VGO_2    0.22  STRM_ARAB_LIGHT_RESIDUE_2 0.16
    SLACK_ARAB_LIGHT_NAPHTHA_2  COST                     -180  STRM_ARAB_LIGHT_NAPHTHA_2 -1
    BL_ARAB_LIGHT_NAPHTHA_GASOLINE_2  STRM_ARAB_LIGHT_NAPHTHA_2 -1  PBAL_GASOLINE_2          1
    BL_ARAB_LIGHT_NAPHTHA_GASOLINE_2  QUAL_GASOLINE_2          330
    BL_ARAB_LIGHT_NAPHTHA_JET_2  STRM_ARAB_LIGHT_NAPHTHA_2 -1  PBAL_JET_2               1
    BL_ARAB_LIGHT_NAPHTHA_JET_2  QUAL_JET_2               -2120
    SLACK_ARAB_LIGHT_KERO_2   COST                     -180  STRM_ARAB_LIGHT_KERO_2   -1
    BL_ARAB_LIGHT_KERO_GASOLINE_2  STRM_ARAB_LIGHT_KERO_2   -1  PBAL_GASOLINE_2          1
    BL_ARAB_LIGHT_KERO_GASOLINE_2  QUAL_GASOLINE_2          2800
    BL_ARAB_LIGHT_KERO_JET_2  STRM_ARAB_LIGHT_KERO_2   -1  PBAL_JET_2               1
    BL_ARAB_LIGHT_KERO_JET_2  QUAL_JET_2               350
    BL_ARAB_LIGHT_KERO_DIESEL_P_2  STRM_ARAB_LIGHT_KERO_2   -1  PBAL_DIESEL_P_2          1
    BL_ARAB_LIGHT_KERO_DIESEL_P_2  QUAL_DIESEL_P_2          2500
    SLACK_ARAB_LIGHT_DIESEL_2  COST                     -180  STRM_ARAB_LIGHT_DIESEL_2 -1
    BL_ARAB_LIGHT_DIESEL_DIESEL_P_2  STRM_ARAB_LIGHT_DIESEL_2 -1  PBAL_DIESEL_P_2          1
    BL_ARAB_LIGHT_DIESEL_DIESEL_P_2  QUAL_DIESEL_P_2          10100
    BL_ARAB_LIGHT_DIESEL_FUELOIL_2  STRM_ARAB_LIGHT_DIESEL_2 -1  PBAL_FUELOIL_2           1
    BL_ARAB_LIGHT_DIESEL_FUELOIL_2  QUAL_FUELOIL_2           -24550
    SLACK_ARAB_LIGHT_VGO_2    COST                     -180  STRM_ARAB_LIGHT_VGO_2    -1
    BL_ARAB_LIGHT_VGO_DIESEL_P_2  STRM_ARAB_LIGHT_VGO_2    -1  PBAL_DIESEL_P_2          1
    BL_ARAB_LIGHT_VGO_DIESEL_P_2  QUAL_DIESEL_P_2          25300
    BL_ARAB_LIGHT_VGO_FUELOIL_2  STRM_ARAB_LIGHT_VGO_2    -1  PBAL_FUELOIL_2           1
    BL_ARAB_LIGHT_VGO_FUELOIL_2  QUAL_FUELOIL_2           -9350
    SLACK_ARAB_LIGHT_RESIDUE_2  COST                     -180  STRM_ARAB_LIGHT_RESIDUE_2 -1
    BL_ARAB_LIGHT_RESIDUE_FUELOIL_2  STRM_ARAB_LIGHT_RESIDUE_2 -1  PBAL_FUELOIL_2           1
    BL_ARAB_LIGHT_RESIDUE_FUELOIL_2  QUAL_FUELOIL_2           14400
    BUY_ARAB_HEAVY_2          COST                     -5980  CBAL_ARAB_HEAVY_2        1
    INVC_ARAB_HEAVY_2         COST                     -71.76  CBAL_ARAB_HEAVY_2        -1
    INVC_ARAB_HEAVY_2         CBAL_ARAB_HEAVY_3        1
    CHG_ARAB_HEAVY_2          COST                     -145  CBAL_ARAB_HEAVY_2        -1
    CHG_ARAB_HEAVY_2          CDUCAP_2                 1  STRM_ARAB_HEAVY_NAPHTHA_2 0.16
    CHG_ARAB_HEAVY_2          STRM_ARAB_HEAVY_KERO_2   0.14  STRM_ARAB_HEAVY_DIESEL_2 0.21
    CHG_ARAB_HEAVY_2          STRM_ARAB_HEAVY_VGO_2    0.25  STRM_ARAB_HEAVY_RESIDUE_2 0.24
    SLACK_ARAB_HEAVY_NAPHTHA_2  COST                     -180  STRM_ARAB_HEAVY_NAPHTHA_2 -1
    BL_ARAB_HEAVY_NAPHTHA_GASOLINE_2  STRM_ARAB_HEAVY_NAPHTHA_2 -1  PBAL_GASOLINE_2          1
    BL_ARAB_HEAVY_NAPHTHA_GASOLINE_2  QUAL_GASOLINE_2          530
    BL_ARAB_HEAVY_NAPHTHA_JET_2  STRM_ARAB_HEAVY_NAPHTHA_2 -1  PBAL_JET_2               1
    BL_ARAB_HEAVY_NAPHTHA_JET_2  QUAL_JET_2               -1920
    SLACK_ARAB_HEAVY_KERO_2   COST                     -180  STRM_ARAB_HEAVY_KERO_2   -1
    BL_ARAB_HEAVY_KERO_GASOLINE_2  STRM_ARAB_HEAVY_KERO_2   -1  PBAL_GASOLINE_2          1
    BL_ARAB_HEAVY_KERO_GASOLINE_2  QUAL_GASOLINE_2          4300
    BL_ARAB_HEAVY_KERO_JET_2  STRM_ARAB_HEAVY_KERO_2   -1  PBAL_JET_2               1
    BL_ARAB_HEAVY_KERO_JET_2  QUAL_JET_2               1850
    BL_ARAB_HEAVY_KERO_DIESEL_P_2  STRM_ARAB_HEAVY_KERO_2   -1  PBAL_DIESEL_P_2          1
    BL_ARAB_HEAVY_KERO_DIESEL_P_2  QUAL_DIESEL_P_2          4000
    SLACK_ARAB_HEAVY_DIESEL_2  COST                     -180  STRM_ARAB_HEAVY_DIESEL_2 -1
    BL_ARAB_HEAVY_DIESEL_DIESEL_P_2  STRM_ARAB_HEAVY_DIESEL_2 -1  PBAL_DIESEL_P_2          1
    BL_ARAB_HEAVY_DIESEL_DIESEL_P_2  QUAL_DIESEL_P_2          15600
    BL_ARAB_HEAVY_DIESEL_FUELOIL_2  STRM_ARAB_HEAVY_DIESEL_2 -1  PBAL_FUELOIL_2           1
    BL_ARAB_HEAVY_DIESEL_FUELOIL_2  QUAL_FUELOIL_2           -19050
    SLACK_ARAB_HEAVY_VGO_2    COST                     -180  STRM_ARAB_HEAVY_VGO_2    -1
    BL_ARAB_HEAVY_VGO_DIESEL_P_2  STRM_ARAB_HEAVY_VGO_2    -1  PBAL_DIESEL_P_2          1
    BL_ARAB_HEAVY_VGO_DIESEL_P_2  QUAL_DIESEL_P_2          38800
    BL_ARAB_HEAVY_VGO_FUELOIL_2  STRM_ARAB_HEAVY_VGO_2    -1  PBAL_FUELOIL_2           1
    BL_ARAB_HEAVY_VGO_FUELOIL_2  QUAL_FUELOIL_2           4150
    SLACK_ARAB_HEAVY_RESIDUE_2  COST                     -180  STRM_ARAB_HEAVY_RESIDUE_2 -1
    BL_ARAB_HEAVY_RESIDUE_FUELOIL_2  STRM_ARAB_HEAVY_RESIDUE_2 -1  PBAL_FUELOIL_2           1
    BL_ARAB_HEAVY_RESIDUE_FUELOIL_2  QUAL_FUELOIL_2           40400
    BUY_BASRAH_2              COST                     -6100  CBAL_BASRAH_2            1
    INVC_BASRAH_2             COST                     -73.2  CBAL_BASRAH_2            -1
    INVC_BASRAH_2             CBAL_BASRAH_3            1
    CHG_BASRAH_2              COST                     -145  CBAL_BASRAH_2            -1
    CHG_BASRAH_2              CDUCAP_2                 1  STRM_BASRAH_NAPHTHA_2    0.18
    CHG_BASRAH_2              STRM_BASRAH_KERO_2       0.15  STRM_BASRAH_DIESEL_2     0.22
    CHG_BASRAH_2              STRM_BASRAH_VGO_2        0.24  STRM_BASRAH_RESIDUE_2    0.21
    SLACK_BASRAH_NAPHTHA_2    COST                     -180  STRM_BASRAH_NAPHTHA_2    -1
    BL_BASRAH_NAPHTHA_GASOLINE_2  STRM_BASRAH_NAPHTHA_2    -1  PBAL_GASOLINE_2          1
    BL_BASRAH_NAPHTHA_GASOLINE_2  QUAL_GASOLINE_2          440
    BL_BASRAH_NAPHTHA_JET_2   STRM_BASRAH_NAPHTHA_2    -1  PBAL_JET_2               1
    BL_BASRAH_NAPHTHA_JET_2   QUAL_JET_2               -2010
    SLACK_BASRAH_KERO_2       COST                     -180  STRM_BASRAH_KERO_2       -1
    BL_BASRAH_KERO_GASOLINE_2  STRM_BASRAH_KERO_2       -1  PBAL_GASOLINE_2          1
    BL_BASRAH_KERO_GASOLINE_2  QUAL_GASOLINE_2          3625
    BL_BASRAH_KERO_JET_2      STRM_BASRAH_KERO_2       -1  PBAL_JET_2               1
    BL_BASRAH_KERO_JET_2      QUAL_JET_2               1175
    BL_BASRAH_KERO_DIESEL_P_2  STRM_BASRAH_KERO_2       -1  PBAL_DIESEL_P_2          1
    BL_BASRAH_KERO_DIESEL_P_2  QUAL_DIESEL_P_2          3325
    SLACK_BASRAH_DIESEL_2     COST                     -180  STRM_BASRAH_DIESEL_2     -1
    BL_BASRAH_DIESEL_DIESEL_P_2  STRM_BASRAH_DIESEL_2     -1  PBAL_DIESEL_P_2          1
    BL_BASRAH_DIESEL_DIESEL_P_2  QUAL_DIESEL_P_2          13125
    BL_BASRAH_DIESEL_FUELOIL_2  STRM_BASRAH_DIESEL_2     -1  PBAL_FUELOIL_2           1
    BL_BASRAH_DIESEL_FUELOIL_2  QUAL_FUELOIL_2           -21525
    SLACK_BASRAH_VGO_2        COST                     -180  STRM_BASRAH_VGO_2        -1
    BL_BASRAH_VGO_DIESEL_P_2  STRM_BASRAH_VGO_2        -1  PBAL_DIESEL_P_2          1
    BL_BASRAH_VGO_DIESEL_P_2  QUAL_DIESEL_P_2          32725
    BL_BASRAH_VGO_FUELOIL_2   STRM_BASRAH_VGO_2        -1  PBAL_FUELOIL_2           1
    BL_BASRAH_VGO_FUELOIL_2   QUAL_FUELOIL_2           -1925
    SLACK_BASRAH_RESIDUE_2    COST                     -180  STRM_BASRAH_RESIDUE_2    -1
    BL_BASRAH_RESIDUE_FUELOIL_2  STRM_BASRAH_RESIDUE_2    -1  PBAL_FUELOIL_2           1
    BL_BASRAH_RESIDUE_FUELOIL_2  QUAL_FUELOIL_2           28700
    SELL_GASOLINE_2           COST                     9250  PBAL_GASOLINE_2          -1
    SELL_JET_2                COST                     8900  PBAL_JET_2               -1
    SELL_DIESEL_P_2           COST                     8600  PBAL_DIESEL_P_2          -1
    SELL_FUELOIL_2            COST                     4900  PBAL_FUELOIL_2           -1
    BUY_BOMBAY_HIGH_3         COST                     -6850  CBAL_BOMBAY_HIGH_3       1
    INVC_BOMBAY_HIGH_3        COST                     -82.2  CBAL_BOMBAY_HIGH_3       -1
    INVC_BOMBAY_HIGH_3        CBAL_BOMBAY_HIGH_4       1
    CHG_BOMBAY_HIGH_3         COST                     -145  CBAL_BOMBAY_HIGH_3       -1
    CHG_BOMBAY_HIGH_3         CDUCAP_3                 1  STRM_BOMBAY_HIGH_NAPHTHA_3 0.26
    CHG_BOMBAY_HIGH_3         STRM_BOMBAY_HIGH_KERO_3  0.18  STRM_BOMBAY_HIGH_DIESEL_3 0.24
    CHG_BOMBAY_HIGH_3         STRM_BOMBAY_HIGH_VGO_3   0.2  STRM_BOMBAY_HIGH_RESIDUE_3 0.12
    SLACK_BOMBAY_HIGH_NAPHTHA_3  COST                     -180  STRM_BOMBAY_HIGH_NAPHTHA_3 -1
    BL_BOMBAY_HIGH_NAPHTHA_GASOLINE_3  STRM_BOMBAY_HIGH_NAPHTHA_3 -1  PBAL_GASOLINE_3          1
    BL_BOMBAY_HIGH_NAPHTHA_GASOLINE_3  QUAL_GASOLINE_3          -32
    BL_BOMBAY_HIGH_NAPHTHA_JET_3  STRM_BOMBAY_HIGH_NAPHTHA_3 -1  PBAL_JET_3               1
    BL_BOMBAY_HIGH_NAPHTHA_JET_3  QUAL_JET_3               -2482
    SLACK_BOMBAY_HIGH_KERO_3  COST                     -180  STRM_BOMBAY_HIGH_KERO_3  -1
    BL_BOMBAY_HIGH_KERO_GASOLINE_3  STRM_BOMBAY_HIGH_KERO_3  -1  PBAL_GASOLINE_3          1
    BL_BOMBAY_HIGH_KERO_GASOLINE_3  QUAL_GASOLINE_3          85
    BL_BOMBAY_HIGH_KERO_JET_3  STRM_BOMBAY_HIGH_KERO_3  -1  PBAL_JET_3               1
    BL_BOMBAY_HIGH_KERO_JET_3  QUAL_JET_3               -2365
    BL_BOMBAY_HIGH_KERO_DIESEL_P_3  STRM_BOMBAY_HIGH_KERO_3  -1  PBAL_DIESEL_P_3          1
    BL_BOMBAY_HIGH_KERO_DIESEL_P_3  QUAL_DIESEL_P_3          -215
    SLACK_BOMBAY_HIGH_DIESEL_3  COST                     -180  STRM_BOMBAY_HIGH_DIESEL_3 -1
    BL_BOMBAY_HIGH_DIESEL_DIESEL_P_3  STRM_BOMBAY_HIGH_DIESEL_3 -1  PBAL_DIESEL_P_3          1
    BL_BOMBAY_HIGH_DIESEL_DIESEL_P_3  QUAL_DIESEL_P_3          145
    BL_BOMBAY_HIGH_DIESEL_FUELOIL_3  STRM_BOMBAY_HIGH_DIESEL_3 -1  PBAL_FUELOIL_3           1
    BL_BOMBAY_HIGH_DIESEL_FUELOIL_3  QUAL_FUELOIL_3           -34505
    SLACK_BOMBAY_HIGH_VGO_3   COST                     -180  STRM_BOMBAY_HIGH_VGO_3   -1
    BL_BOMBAY_HIGH_VGO_DIESEL_P_3  STRM_BOMBAY_HIGH_VGO_3   -1  PBAL_DIESEL_P_3          1
    BL_BOMBAY_HIGH_VGO_DIESEL_P_3  QUAL_DIESEL_P_3          865
    BL_BOMBAY_HIGH_VGO_FUELOIL_3  STRM_BOMBAY_HIGH_VGO_3   -1  PBAL_FUELOIL_3           1
    BL_BOMBAY_HIGH_VGO_FUELOIL_3  QUAL_FUELOIL_3           -33785
    SLACK_BOMBAY_HIGH_RESIDUE_3  COST                     -180  STRM_BOMBAY_HIGH_RESIDUE_3 -1
    BL_BOMBAY_HIGH_RESIDUE_FUELOIL_3  STRM_BOMBAY_HIGH_RESIDUE_3 -1  PBAL_FUELOIL_3           1
    BL_BOMBAY_HIGH_RESIDUE_FUELOIL_3  QUAL_FUELOIL_3           -32660
    BUY_ARAB_LIGHT_3          COST                     -6420  CBAL_ARAB_LIGHT_3        1
    INVC_ARAB_LIGHT_3         COST                     -77.04  CBAL_ARAB_LIGHT_3        -1
    INVC_ARAB_LIGHT_3         CBAL_ARAB_LIGHT_4        1
    CHG_ARAB_LIGHT_3          COST                     -145  CBAL_ARAB_LIGHT_3        -1
    CHG_ARAB_LIGHT_3          CDUCAP_3                 1  STRM_ARAB_LIGHT_NAPHTHA_3 0.22
    CHG_ARAB_LIGHT_3          STRM_ARAB_LIGHT_KERO_3   0.17  STRM_ARAB_LIGHT_DIESEL_3 0.23
    CHG_ARAB_LIGHT_3          STRM_ARAB_LIGHT_VGO_3    0.22  STRM_ARAB_LIGHT_RESIDUE_3 0.16
    SLACK_ARAB_LIGHT_NAPHTHA_3  COST                     -180  STRM_ARAB_LIGHT_NAPHTHA_3 -1
    BL_ARAB_LIGHT_NAPHTHA_GASOLINE_3  STRM_ARAB_LIGHT_NAPHTHA_3 -1  PBAL_GASOLINE_3          1
    BL_ARAB_LIGHT_NAPHTHA_GASOLINE_3  QUAL_GASOLINE_3          330
    BL_ARAB_LIGHT_NAPHTHA_JET_3  STRM_ARAB_LIGHT_NAPHTHA_3 -1  PBAL_JET_3               1
    BL_ARAB_LIGHT_NAPHTHA_JET_3  QUAL_JET_3               -2120
    SLACK_ARAB_LIGHT_KERO_3   COST                     -180  STRM_ARAB_LIGHT_KERO_3   -1
    BL_ARAB_LIGHT_KERO_GASOLINE_3  STRM_ARAB_LIGHT_KERO_3   -1  PBAL_GASOLINE_3          1
    BL_ARAB_LIGHT_KERO_GASOLINE_3  QUAL_GASOLINE_3          2800
    BL_ARAB_LIGHT_KERO_JET_3  STRM_ARAB_LIGHT_KERO_3   -1  PBAL_JET_3               1
    BL_ARAB_LIGHT_KERO_JET_3  QUAL_JET_3               350
    BL_ARAB_LIGHT_KERO_DIESEL_P_3  STRM_ARAB_LIGHT_KERO_3   -1  PBAL_DIESEL_P_3          1
    BL_ARAB_LIGHT_KERO_DIESEL_P_3  QUAL_DIESEL_P_3          2500
    SLACK_ARAB_LIGHT_DIESEL_3  COST                     -180  STRM_ARAB_LIGHT_DIESEL_3 -1
    BL_ARAB_LIGHT_DIESEL_DIESEL_P_3  STRM_ARAB_LIGHT_DIESEL_3 -1  PBAL_DIESEL_P_3          1
    BL_ARAB_LIGHT_DIESEL_DIESEL_P_3  QUAL_DIESEL_P_3          10100
    BL_ARAB_LIGHT_DIESEL_FUELOIL_3  STRM_ARAB_LIGHT_DIESEL_3 -1  PBAL_FUELOIL_3           1
    BL_ARAB_LIGHT_DIESEL_FUELOIL_3  QUAL_FUELOIL_3           -24550
    SLACK_ARAB_LIGHT_VGO_3    COST                     -180  STRM_ARAB_LIGHT_VGO_3    -1
    BL_ARAB_LIGHT_VGO_DIESEL_P_3  STRM_ARAB_LIGHT_VGO_3    -1  PBAL_DIESEL_P_3          1
    BL_ARAB_LIGHT_VGO_DIESEL_P_3  QUAL_DIESEL_P_3          25300
    BL_ARAB_LIGHT_VGO_FUELOIL_3  STRM_ARAB_LIGHT_VGO_3    -1  PBAL_FUELOIL_3           1
    BL_ARAB_LIGHT_VGO_FUELOIL_3  QUAL_FUELOIL_3           -9350
    SLACK_ARAB_LIGHT_RESIDUE_3  COST                     -180  STRM_ARAB_LIGHT_RESIDUE_3 -1
    BL_ARAB_LIGHT_RESIDUE_FUELOIL_3  STRM_ARAB_LIGHT_RESIDUE_3 -1  PBAL_FUELOIL_3           1
    BL_ARAB_LIGHT_RESIDUE_FUELOIL_3  QUAL_FUELOIL_3           14400
    BUY_ARAB_HEAVY_3          COST                     -5980  CBAL_ARAB_HEAVY_3        1
    INVC_ARAB_HEAVY_3         COST                     -71.76  CBAL_ARAB_HEAVY_3        -1
    INVC_ARAB_HEAVY_3         CBAL_ARAB_HEAVY_4        1
    CHG_ARAB_HEAVY_3          COST                     -145  CBAL_ARAB_HEAVY_3        -1
    CHG_ARAB_HEAVY_3          CDUCAP_3                 1  STRM_ARAB_HEAVY_NAPHTHA_3 0.16
    CHG_ARAB_HEAVY_3          STRM_ARAB_HEAVY_KERO_3   0.14  STRM_ARAB_HEAVY_DIESEL_3 0.21
    CHG_ARAB_HEAVY_3          STRM_ARAB_HEAVY_VGO_3    0.25  STRM_ARAB_HEAVY_RESIDUE_3 0.24
    SLACK_ARAB_HEAVY_NAPHTHA_3  COST                     -180  STRM_ARAB_HEAVY_NAPHTHA_3 -1
    BL_ARAB_HEAVY_NAPHTHA_GASOLINE_3  STRM_ARAB_HEAVY_NAPHTHA_3 -1  PBAL_GASOLINE_3          1
    BL_ARAB_HEAVY_NAPHTHA_GASOLINE_3  QUAL_GASOLINE_3          530
    BL_ARAB_HEAVY_NAPHTHA_JET_3  STRM_ARAB_HEAVY_NAPHTHA_3 -1  PBAL_JET_3               1
    BL_ARAB_HEAVY_NAPHTHA_JET_3  QUAL_JET_3               -1920
    SLACK_ARAB_HEAVY_KERO_3   COST                     -180  STRM_ARAB_HEAVY_KERO_3   -1
    BL_ARAB_HEAVY_KERO_GASOLINE_3  STRM_ARAB_HEAVY_KERO_3   -1  PBAL_GASOLINE_3          1
    BL_ARAB_HEAVY_KERO_GASOLINE_3  QUAL_GASOLINE_3          4300
    BL_ARAB_HEAVY_KERO_JET_3  STRM_ARAB_HEAVY_KERO_3   -1  PBAL_JET_3               1
    BL_ARAB_HEAVY_KERO_JET_3  QUAL_JET_3               1850
    BL_ARAB_HEAVY_KERO_DIESEL_P_3  STRM_ARAB_HEAVY_KERO_3   -1  PBAL_DIESEL_P_3          1
    BL_ARAB_HEAVY_KERO_DIESEL_P_3  QUAL_DIESEL_P_3          4000
    SLACK_ARAB_HEAVY_DIESEL_3  COST                     -180  STRM_ARAB_HEAVY_DIESEL_3 -1
    BL_ARAB_HEAVY_DIESEL_DIESEL_P_3  STRM_ARAB_HEAVY_DIESEL_3 -1  PBAL_DIESEL_P_3          1
    BL_ARAB_HEAVY_DIESEL_DIESEL_P_3  QUAL_DIESEL_P_3          15600
    BL_ARAB_HEAVY_DIESEL_FUELOIL_3  STRM_ARAB_HEAVY_DIESEL_3 -1  PBAL_FUELOIL_3           1
    BL_ARAB_HEAVY_DIESEL_FUELOIL_3  QUAL_FUELOIL_3           -19050
    SLACK_ARAB_HEAVY_VGO_3    COST                     -180  STRM_ARAB_HEAVY_VGO_3    -1
    BL_ARAB_HEAVY_VGO_DIESEL_P_3  STRM_ARAB_HEAVY_VGO_3    -1  PBAL_DIESEL_P_3          1
    BL_ARAB_HEAVY_VGO_DIESEL_P_3  QUAL_DIESEL_P_3          38800
    BL_ARAB_HEAVY_VGO_FUELOIL_3  STRM_ARAB_HEAVY_VGO_3    -1  PBAL_FUELOIL_3           1
    BL_ARAB_HEAVY_VGO_FUELOIL_3  QUAL_FUELOIL_3           4150
    SLACK_ARAB_HEAVY_RESIDUE_3  COST                     -180  STRM_ARAB_HEAVY_RESIDUE_3 -1
    BL_ARAB_HEAVY_RESIDUE_FUELOIL_3  STRM_ARAB_HEAVY_RESIDUE_3 -1  PBAL_FUELOIL_3           1
    BL_ARAB_HEAVY_RESIDUE_FUELOIL_3  QUAL_FUELOIL_3           40400
    BUY_BASRAH_3              COST                     -6100  CBAL_BASRAH_3            1
    INVC_BASRAH_3             COST                     -73.2  CBAL_BASRAH_3            -1
    INVC_BASRAH_3             CBAL_BASRAH_4            1
    CHG_BASRAH_3              COST                     -145  CBAL_BASRAH_3            -1
    CHG_BASRAH_3              CDUCAP_3                 1  STRM_BASRAH_NAPHTHA_3    0.18
    CHG_BASRAH_3              STRM_BASRAH_KERO_3       0.15  STRM_BASRAH_DIESEL_3     0.22
    CHG_BASRAH_3              STRM_BASRAH_VGO_3        0.24  STRM_BASRAH_RESIDUE_3    0.21
    SLACK_BASRAH_NAPHTHA_3    COST                     -180  STRM_BASRAH_NAPHTHA_3    -1
    BL_BASRAH_NAPHTHA_GASOLINE_3  STRM_BASRAH_NAPHTHA_3    -1  PBAL_GASOLINE_3          1
    BL_BASRAH_NAPHTHA_GASOLINE_3  QUAL_GASOLINE_3          440
    BL_BASRAH_NAPHTHA_JET_3   STRM_BASRAH_NAPHTHA_3    -1  PBAL_JET_3               1
    BL_BASRAH_NAPHTHA_JET_3   QUAL_JET_3               -2010
    SLACK_BASRAH_KERO_3       COST                     -180  STRM_BASRAH_KERO_3       -1
    BL_BASRAH_KERO_GASOLINE_3  STRM_BASRAH_KERO_3       -1  PBAL_GASOLINE_3          1
    BL_BASRAH_KERO_GASOLINE_3  QUAL_GASOLINE_3          3625
    BL_BASRAH_KERO_JET_3      STRM_BASRAH_KERO_3       -1  PBAL_JET_3               1
    BL_BASRAH_KERO_JET_3      QUAL_JET_3               1175
    BL_BASRAH_KERO_DIESEL_P_3  STRM_BASRAH_KERO_3       -1  PBAL_DIESEL_P_3          1
    BL_BASRAH_KERO_DIESEL_P_3  QUAL_DIESEL_P_3          3325
    SLACK_BASRAH_DIESEL_3     COST                     -180  STRM_BASRAH_DIESEL_3     -1
    BL_BASRAH_DIESEL_DIESEL_P_3  STRM_BASRAH_DIESEL_3     -1  PBAL_DIESEL_P_3          1
    BL_BASRAH_DIESEL_DIESEL_P_3  QUAL_DIESEL_P_3          13125
    BL_BASRAH_DIESEL_FUELOIL_3  STRM_BASRAH_DIESEL_3     -1  PBAL_FUELOIL_3           1
    BL_BASRAH_DIESEL_FUELOIL_3  QUAL_FUELOIL_3           -21525
    SLACK_BASRAH_VGO_3        COST                     -180  STRM_BASRAH_VGO_3        -1
    BL_BASRAH_VGO_DIESEL_P_3  STRM_BASRAH_VGO_3        -1  PBAL_DIESEL_P_3          1
    BL_BASRAH_VGO_DIESEL_P_3  QUAL_DIESEL_P_3          32725
    BL_BASRAH_VGO_FUELOIL_3   STRM_BASRAH_VGO_3        -1  PBAL_FUELOIL_3           1
    BL_BASRAH_VGO_FUELOIL_3   QUAL_FUELOIL_3           -1925
    SLACK_BASRAH_RESIDUE_3    COST                     -180  STRM_BASRAH_RESIDUE_3    -1
    BL_BASRAH_RESIDUE_FUELOIL_3  STRM_BASRAH_RESIDUE_3    -1  PBAL_FUELOIL_3           1
    BL_BASRAH_RESIDUE_FUELOIL_3  QUAL_FUELOIL_3           28700
    SELL_GASOLINE_3           COST                     9250  PBAL_GASOLINE_3          -1
    SELL_JET_3                COST                     8900  PBAL_JET_3               -1
    SELL_DIESEL_P_3           COST                     8600  PBAL_DIESEL_P_3          -1
    SELL_FUELOIL_3            COST                     4900  PBAL_FUELOIL_3           -1
    BUY_BOMBAY_HIGH_4         COST                     -6850  CBAL_BOMBAY_HIGH_4       1
    INVC_BOMBAY_HIGH_4        COST                     -82.2  CBAL_BOMBAY_HIGH_4       -1
    CHG_BOMBAY_HIGH_4         COST                     -145  CBAL_BOMBAY_HIGH_4       -1
    CHG_BOMBAY_HIGH_4         CDUCAP_4                 1  STRM_BOMBAY_HIGH_NAPHTHA_4 0.26
    CHG_BOMBAY_HIGH_4         STRM_BOMBAY_HIGH_KERO_4  0.18  STRM_BOMBAY_HIGH_DIESEL_4 0.24
    CHG_BOMBAY_HIGH_4         STRM_BOMBAY_HIGH_VGO_4   0.2  STRM_BOMBAY_HIGH_RESIDUE_4 0.12
    SLACK_BOMBAY_HIGH_NAPHTHA_4  COST                     -180  STRM_BOMBAY_HIGH_NAPHTHA_4 -1
    BL_BOMBAY_HIGH_NAPHTHA_GASOLINE_4  STRM_BOMBAY_HIGH_NAPHTHA_4 -1  PBAL_GASOLINE_4          1
    BL_BOMBAY_HIGH_NAPHTHA_GASOLINE_4  QUAL_GASOLINE_4          -32
    BL_BOMBAY_HIGH_NAPHTHA_JET_4  STRM_BOMBAY_HIGH_NAPHTHA_4 -1  PBAL_JET_4               1
    BL_BOMBAY_HIGH_NAPHTHA_JET_4  QUAL_JET_4               -2482
    SLACK_BOMBAY_HIGH_KERO_4  COST                     -180  STRM_BOMBAY_HIGH_KERO_4  -1
    BL_BOMBAY_HIGH_KERO_GASOLINE_4  STRM_BOMBAY_HIGH_KERO_4  -1  PBAL_GASOLINE_4          1
    BL_BOMBAY_HIGH_KERO_GASOLINE_4  QUAL_GASOLINE_4          85
    BL_BOMBAY_HIGH_KERO_JET_4  STRM_BOMBAY_HIGH_KERO_4  -1  PBAL_JET_4               1
    BL_BOMBAY_HIGH_KERO_JET_4  QUAL_JET_4               -2365
    BL_BOMBAY_HIGH_KERO_DIESEL_P_4  STRM_BOMBAY_HIGH_KERO_4  -1  PBAL_DIESEL_P_4          1
    BL_BOMBAY_HIGH_KERO_DIESEL_P_4  QUAL_DIESEL_P_4          -215
    SLACK_BOMBAY_HIGH_DIESEL_4  COST                     -180  STRM_BOMBAY_HIGH_DIESEL_4 -1
    BL_BOMBAY_HIGH_DIESEL_DIESEL_P_4  STRM_BOMBAY_HIGH_DIESEL_4 -1  PBAL_DIESEL_P_4          1
    BL_BOMBAY_HIGH_DIESEL_DIESEL_P_4  QUAL_DIESEL_P_4          145
    BL_BOMBAY_HIGH_DIESEL_FUELOIL_4  STRM_BOMBAY_HIGH_DIESEL_4 -1  PBAL_FUELOIL_4           1
    BL_BOMBAY_HIGH_DIESEL_FUELOIL_4  QUAL_FUELOIL_4           -34505
    SLACK_BOMBAY_HIGH_VGO_4   COST                     -180  STRM_BOMBAY_HIGH_VGO_4   -1
    BL_BOMBAY_HIGH_VGO_DIESEL_P_4  STRM_BOMBAY_HIGH_VGO_4   -1  PBAL_DIESEL_P_4          1
    BL_BOMBAY_HIGH_VGO_DIESEL_P_4  QUAL_DIESEL_P_4          865
    BL_BOMBAY_HIGH_VGO_FUELOIL_4  STRM_BOMBAY_HIGH_VGO_4   -1  PBAL_FUELOIL_4           1
    BL_BOMBAY_HIGH_VGO_FUELOIL_4  QUAL_FUELOIL_4           -33785
    SLACK_BOMBAY_HIGH_RESIDUE_4  COST                     -180  STRM_BOMBAY_HIGH_RESIDUE_4 -1
    BL_BOMBAY_HIGH_RESIDUE_FUELOIL_4  STRM_BOMBAY_HIGH_RESIDUE_4 -1  PBAL_FUELOIL_4           1
    BL_BOMBAY_HIGH_RESIDUE_FUELOIL_4  QUAL_FUELOIL_4           -32660
    BUY_ARAB_LIGHT_4          COST                     -6420  CBAL_ARAB_LIGHT_4        1
    INVC_ARAB_LIGHT_4         COST                     -77.04  CBAL_ARAB_LIGHT_4        -1
    CHG_ARAB_LIGHT_4          COST                     -145  CBAL_ARAB_LIGHT_4        -1
    CHG_ARAB_LIGHT_4          CDUCAP_4                 1  STRM_ARAB_LIGHT_NAPHTHA_4 0.22
    CHG_ARAB_LIGHT_4          STRM_ARAB_LIGHT_KERO_4   0.17  STRM_ARAB_LIGHT_DIESEL_4 0.23
    CHG_ARAB_LIGHT_4          STRM_ARAB_LIGHT_VGO_4    0.22  STRM_ARAB_LIGHT_RESIDUE_4 0.16
    SLACK_ARAB_LIGHT_NAPHTHA_4  COST                     -180  STRM_ARAB_LIGHT_NAPHTHA_4 -1
    BL_ARAB_LIGHT_NAPHTHA_GASOLINE_4  STRM_ARAB_LIGHT_NAPHTHA_4 -1  PBAL_GASOLINE_4          1
    BL_ARAB_LIGHT_NAPHTHA_GASOLINE_4  QUAL_GASOLINE_4          330
    BL_ARAB_LIGHT_NAPHTHA_JET_4  STRM_ARAB_LIGHT_NAPHTHA_4 -1  PBAL_JET_4               1
    BL_ARAB_LIGHT_NAPHTHA_JET_4  QUAL_JET_4               -2120
    SLACK_ARAB_LIGHT_KERO_4   COST                     -180  STRM_ARAB_LIGHT_KERO_4   -1
    BL_ARAB_LIGHT_KERO_GASOLINE_4  STRM_ARAB_LIGHT_KERO_4   -1  PBAL_GASOLINE_4          1
    BL_ARAB_LIGHT_KERO_GASOLINE_4  QUAL_GASOLINE_4          2800
    BL_ARAB_LIGHT_KERO_JET_4  STRM_ARAB_LIGHT_KERO_4   -1  PBAL_JET_4               1
    BL_ARAB_LIGHT_KERO_JET_4  QUAL_JET_4               350
    BL_ARAB_LIGHT_KERO_DIESEL_P_4  STRM_ARAB_LIGHT_KERO_4   -1  PBAL_DIESEL_P_4          1
    BL_ARAB_LIGHT_KERO_DIESEL_P_4  QUAL_DIESEL_P_4          2500
    SLACK_ARAB_LIGHT_DIESEL_4  COST                     -180  STRM_ARAB_LIGHT_DIESEL_4 -1
    BL_ARAB_LIGHT_DIESEL_DIESEL_P_4  STRM_ARAB_LIGHT_DIESEL_4 -1  PBAL_DIESEL_P_4          1
    BL_ARAB_LIGHT_DIESEL_DIESEL_P_4  QUAL_DIESEL_P_4          10100
    BL_ARAB_LIGHT_DIESEL_FUELOIL_4  STRM_ARAB_LIGHT_DIESEL_4 -1  PBAL_FUELOIL_4           1
    BL_ARAB_LIGHT_DIESEL_FUELOIL_4  QUAL_FUELOIL_4           -24550
    SLACK_ARAB_LIGHT_VGO_4    COST                     -180  STRM_ARAB_LIGHT_VGO_4    -1
    BL_ARAB_LIGHT_VGO_DIESEL_P_4  STRM_ARAB_LIGHT_VGO_4    -1  PBAL_DIESEL_P_4          1
    BL_ARAB_LIGHT_VGO_DIESEL_P_4  QUAL_DIESEL_P_4          25300
    BL_ARAB_LIGHT_VGO_FUELOIL_4  STRM_ARAB_LIGHT_VGO_4    -1  PBAL_FUELOIL_4           1
    BL_ARAB_LIGHT_VGO_FUELOIL_4  QUAL_FUELOIL_4           -9350
    SLACK_ARAB_LIGHT_RESIDUE_4  COST                     -180  STRM_ARAB_LIGHT_RESIDUE_4 -1
    BL_ARAB_LIGHT_RESIDUE_FUELOIL_4  STRM_ARAB_LIGHT_RESIDUE_4 -1  PBAL_FUELOIL_4           1
    BL_ARAB_LIGHT_RESIDUE_FUELOIL_4  QUAL_FUELOIL_4           14400
    BUY_ARAB_HEAVY_4          COST                     -5980  CBAL_ARAB_HEAVY_4        1
    INVC_ARAB_HEAVY_4         COST                     -71.76  CBAL_ARAB_HEAVY_4        -1
    CHG_ARAB_HEAVY_4          COST                     -145  CBAL_ARAB_HEAVY_4        -1
    CHG_ARAB_HEAVY_4          CDUCAP_4                 1  STRM_ARAB_HEAVY_NAPHTHA_4 0.16
    CHG_ARAB_HEAVY_4          STRM_ARAB_HEAVY_KERO_4   0.14  STRM_ARAB_HEAVY_DIESEL_4 0.21
    CHG_ARAB_HEAVY_4          STRM_ARAB_HEAVY_VGO_4    0.25  STRM_ARAB_HEAVY_RESIDUE_4 0.24
    SLACK_ARAB_HEAVY_NAPHTHA_4  COST                     -180  STRM_ARAB_HEAVY_NAPHTHA_4 -1
    BL_ARAB_HEAVY_NAPHTHA_GASOLINE_4  STRM_ARAB_HEAVY_NAPHTHA_4 -1  PBAL_GASOLINE_4          1
    BL_ARAB_HEAVY_NAPHTHA_GASOLINE_4  QUAL_GASOLINE_4          530
    BL_ARAB_HEAVY_NAPHTHA_JET_4  STRM_ARAB_HEAVY_NAPHTHA_4 -1  PBAL_JET_4               1
    BL_ARAB_HEAVY_NAPHTHA_JET_4  QUAL_JET_4               -1920
    SLACK_ARAB_HEAVY_KERO_4   COST                     -180  STRM_ARAB_HEAVY_KERO_4   -1
    BL_ARAB_HEAVY_KERO_GASOLINE_4  STRM_ARAB_HEAVY_KERO_4   -1  PBAL_GASOLINE_4          1
    BL_ARAB_HEAVY_KERO_GASOLINE_4  QUAL_GASOLINE_4          4300
    BL_ARAB_HEAVY_KERO_JET_4  STRM_ARAB_HEAVY_KERO_4   -1  PBAL_JET_4               1
    BL_ARAB_HEAVY_KERO_JET_4  QUAL_JET_4               1850
    BL_ARAB_HEAVY_KERO_DIESEL_P_4  STRM_ARAB_HEAVY_KERO_4   -1  PBAL_DIESEL_P_4          1
    BL_ARAB_HEAVY_KERO_DIESEL_P_4  QUAL_DIESEL_P_4          4000
    SLACK_ARAB_HEAVY_DIESEL_4  COST                     -180  STRM_ARAB_HEAVY_DIESEL_4 -1
    BL_ARAB_HEAVY_DIESEL_DIESEL_P_4  STRM_ARAB_HEAVY_DIESEL_4 -1  PBAL_DIESEL_P_4          1
    BL_ARAB_HEAVY_DIESEL_DIESEL_P_4  QUAL_DIESEL_P_4          15600
    BL_ARAB_HEAVY_DIESEL_FUELOIL_4  STRM_ARAB_HEAVY_DIESEL_4 -1  PBAL_FUELOIL_4           1
    BL_ARAB_HEAVY_DIESEL_FUELOIL_4  QUAL_FUELOIL_4           -19050
    SLACK_ARAB_HEAVY_VGO_4    COST                     -180  STRM_ARAB_HEAVY_VGO_4    -1
    BL_ARAB_HEAVY_VGO_DIESEL_P_4  STRM_ARAB_HEAVY_VGO_4    -1  PBAL_DIESEL_P_4          1
    BL_ARAB_HEAVY_VGO_DIESEL_P_4  QUAL_DIESEL_P_4          38800
    BL_ARAB_HEAVY_VGO_FUELOIL_4  STRM_ARAB_HEAVY_VGO_4    -1  PBAL_FUELOIL_4           1
    BL_ARAB_HEAVY_VGO_FUELOIL_4  QUAL_FUELOIL_4           4150
    SLACK_ARAB_HEAVY_RESIDUE_4  COST                     -180  STRM_ARAB_HEAVY_RESIDUE_4 -1
    BL_ARAB_HEAVY_RESIDUE_FUELOIL_4  STRM_ARAB_HEAVY_RESIDUE_4 -1  PBAL_FUELOIL_4           1
    BL_ARAB_HEAVY_RESIDUE_FUELOIL_4  QUAL_FUELOIL_4           40400
    BUY_BASRAH_4              COST                     -6100  CBAL_BASRAH_4            1
    INVC_BASRAH_4             COST                     -73.2  CBAL_BASRAH_4            -1
    CHG_BASRAH_4              COST                     -145  CBAL_BASRAH_4            -1
    CHG_BASRAH_4              CDUCAP_4                 1  STRM_BASRAH_NAPHTHA_4    0.18
    CHG_BASRAH_4              STRM_BASRAH_KERO_4       0.15  STRM_BASRAH_DIESEL_4     0.22
    CHG_BASRAH_4              STRM_BASRAH_VGO_4        0.24  STRM_BASRAH_RESIDUE_4    0.21
    SLACK_BASRAH_NAPHTHA_4    COST                     -180  STRM_BASRAH_NAPHTHA_4    -1
    BL_BASRAH_NAPHTHA_GASOLINE_4  STRM_BASRAH_NAPHTHA_4    -1  PBAL_GASOLINE_4          1
    BL_BASRAH_NAPHTHA_GASOLINE_4  QUAL_GASOLINE_4          440
    BL_BASRAH_NAPHTHA_JET_4   STRM_BASRAH_NAPHTHA_4    -1  PBAL_JET_4               1
    BL_BASRAH_NAPHTHA_JET_4   QUAL_JET_4               -2010
    SLACK_BASRAH_KERO_4       COST                     -180  STRM_BASRAH_KERO_4       -1
    BL_BASRAH_KERO_GASOLINE_4  STRM_BASRAH_KERO_4       -1  PBAL_GASOLINE_4          1
    BL_BASRAH_KERO_GASOLINE_4  QUAL_GASOLINE_4          3625
    BL_BASRAH_KERO_JET_4      STRM_BASRAH_KERO_4       -1  PBAL_JET_4               1
    BL_BASRAH_KERO_JET_4      QUAL_JET_4               1175
    BL_BASRAH_KERO_DIESEL_P_4  STRM_BASRAH_KERO_4       -1  PBAL_DIESEL_P_4          1
    BL_BASRAH_KERO_DIESEL_P_4  QUAL_DIESEL_P_4          3325
    SLACK_BASRAH_DIESEL_4     COST                     -180  STRM_BASRAH_DIESEL_4     -1
    BL_BASRAH_DIESEL_DIESEL_P_4  STRM_BASRAH_DIESEL_4     -1  PBAL_DIESEL_P_4          1
    BL_BASRAH_DIESEL_DIESEL_P_4  QUAL_DIESEL_P_4          13125
    BL_BASRAH_DIESEL_FUELOIL_4  STRM_BASRAH_DIESEL_4     -1  PBAL_FUELOIL_4           1
    BL_BASRAH_DIESEL_FUELOIL_4  QUAL_FUELOIL_4           -21525
    SLACK_BASRAH_VGO_4        COST                     -180  STRM_BASRAH_VGO_4        -1
    BL_BASRAH_VGO_DIESEL_P_4  STRM_BASRAH_VGO_4        -1  PBAL_DIESEL_P_4          1
    BL_BASRAH_VGO_DIESEL_P_4  QUAL_DIESEL_P_4          32725
    BL_BASRAH_VGO_FUELOIL_4   STRM_BASRAH_VGO_4        -1  PBAL_FUELOIL_4           1
    BL_BASRAH_VGO_FUELOIL_4   QUAL_FUELOIL_4           -1925
    SLACK_BASRAH_RESIDUE_4    COST                     -180  STRM_BASRAH_RESIDUE_4    -1
    BL_BASRAH_RESIDUE_FUELOIL_4  STRM_BASRAH_RESIDUE_4    -1  PBAL_FUELOIL_4           1
    BL_BASRAH_RESIDUE_FUELOIL_4  QUAL_FUELOIL_4           28700
    SELL_GASOLINE_4           COST                     9250  PBAL_GASOLINE_4          -1
    SELL_JET_4                COST                     8900  PBAL_JET_4               -1
    SELL_DIESEL_P_4           COST                     8600  PBAL_DIESEL_P_4          -1
    SELL_FUELOIL_4            COST                     4900  PBAL_FUELOIL_4           -1
RHS
    RHS       CDUCAP_1                 1500000
    RHS       CDUCAP_2                 1500000
    RHS       CDUCAP_3                 1500000
    RHS       CDUCAP_4                 1500000
BOUNDS
 UP BND       BUY_BOMBAY_HIGH_1        630000
 UP BND       INVC_BOMBAY_HIGH_1       825000
 UP BND       BUY_ARAB_LIGHT_1         630000
 UP BND       INVC_ARAB_LIGHT_1        825000
 UP BND       BUY_ARAB_HEAVY_1         630000
 UP BND       INVC_ARAB_HEAVY_1        825000
 UP BND       BUY_BASRAH_1             630000
 UP BND       INVC_BASRAH_1            825000
 UP BND       SELL_GASOLINE_1          510000
 UP BND       SELL_JET_1               172200
 UP BND       SELL_DIESEL_P_1          588600
 UP BND       SELL_FUELOIL_1           218400
 UP BND       BUY_BOMBAY_HIGH_2        630000
 UP BND       INVC_BOMBAY_HIGH_2       825000
 UP BND       BUY_ARAB_LIGHT_2         630000
 UP BND       INVC_ARAB_LIGHT_2        825000
 UP BND       BUY_ARAB_HEAVY_2         630000
 UP BND       INVC_ARAB_HEAVY_2        825000
 UP BND       BUY_BASRAH_2             630000
 UP BND       INVC_BASRAH_2            825000
 UP BND       SELL_GASOLINE_2          601800
 UP BND       SELL_JET_2               210000
 UP BND       SELL_DIESEL_P_2          442800
 UP BND       SELL_FUELOIL_2           261600
 UP BND       BUY_BOMBAY_HIGH_3        630000
 UP BND       INVC_BOMBAY_HIGH_3       825000
 UP BND       BUY_ARAB_LIGHT_3         630000
 UP BND       INVC_ARAB_LIGHT_3        825000
 UP BND       BUY_ARAB_HEAVY_3         630000
 UP BND       INVC_ARAB_HEAVY_3        825000
 UP BND       BUY_BASRAH_3             630000
 UP BND       INVC_BASRAH_3            825000
 UP BND       SELL_GASOLINE_3          464100
 UP BND       SELL_JET_3               247800
 UP BND       SELL_DIESEL_P_3          540000
 UP BND       SELL_FUELOIL_3           196800
 UP BND       BUY_BOMBAY_HIGH_4        630000
 UP BND       INVC_BOMBAY_HIGH_4       825000
 UP BND       BUY_ARAB_LIGHT_4         630000
 UP BND       INVC_ARAB_LIGHT_4        825000
 UP BND       BUY_ARAB_HEAVY_4         630000
 UP BND       INVC_ARAB_HEAVY_4        825000
 UP BND       BUY_BASRAH_4             630000
 UP BND       INVC_BASRAH_4            825000
 UP BND       SELL_GASOLINE_4          555900
 UP BND       SELL_JET_4               191100
 UP BND       SELL_DIESEL_P_4          637200
 UP BND       SELL_FUELOIL_4           240000
ENDATA
